*HEADING
FEA1B_M3R_INTERFACE  case=ARM_MANEUVER_QS  mesh=T2_TT_MEDIUM  eltype=C3D8I  material=AL6061_T6_CAND
M7 WP7 FEA_OPERATIONAL element-formulation closure (ODR-11/ODR-12).
Units: N, mm, MPa, tonne. Linear static. DESIGN_INDICATIVE results only.
** ELEMENT_FORMULATION: C3D8I -- incompatible-mode 8-node hex, 2x2x2 full integration, no hourglass modes, incompatible modes relieve shear locking in bending-dominated thin features (PRIMARY choice)
** MESH_SERIES: THROUGH_THICKNESS  n_xy=16 (pitch 10 mm)  kz=2
** ASSUMPTION: LINEAR_STATIC_SMALL_DISPLACEMENT (NLGEOM off; loads are milli-g level)
** ASSUMPTION: BUS_SIDE_ENCASTRE_ASSUMPTION: BC-BUS-001 bus stiffness authority is HOLD; z=0 face fully clamped = stiff-boundary design bound
** ASSUMPTION: BOLT_DISK_KINEMATIC_COUPLING_ASSUMPTION: M6/M5/M4 joints modelled as rigid coupling disks (r_b=12/10/10 mm, auto-grow to >=1 node/face, recorded); no preload, no friction, no slip
** ASSUMPTION: ARM_BASE_RIGID_SPIDER_ASSUMPTION: B601 base flange stiffness >> 8 mm ring; single RP spider onto 4 as-built M4 disks; sensitivity covered by the 3-level mesh convergence series (CDR rigid_spider rule)
** ASSUMPTION: NO_CONTACT_NO_PRELOAD_NO_FRICTION: CDR joint mechanics HOLD; faces outside bolt disks untied (separation/interpenetration possible; Level-1 bound)
** ASSUMPTION: STAGE_B_IDEALIZED_ANNULAR_PLATE: pocket/recess not resolved; bore dia100 through bottom 2 layers; centre web r<50 modelled 4.0 mm (real 5.595)
** ASSUMPTION: STAGE_A_IDEALIZED_UNIFORM_RING: OD150/ID40 x 8.0 uniform; spigot, recess, counterbores not resolved
** ASSUMPTION: BRIDGE_CORNER_RADIUS_OMITTED: R4 corners modelled square; all boundaries stepped at element corners
** ASSUMPTION: SMALL_HOLES_NOT_CUT: dia6.6/5.5/4.6 holes represented by coupling disks, not voids (locally stiffer); hole-edge peak stress NOT qualified here
** ASSUMPTION: POISSON_ASSUMPTION: nu=0.33 for both Al candidates (not in M6 library)
** ASSUMPTION: MATERIALS_CANDIDATE: 6061-T6 / 7075-T651 elastic constants from M6 WP4 library, classification PROTOTYPE_CANDIDATE; margins DESIGN_INDICATIVE only
** ASSUMPTION: DYNAMIC_FACTOR_ASSUMPTION: quasi-static equivalence F_eq=DAF*J/dt, DAF=2.0, dt=0.1 s; both declared assumptions, research-bound
** ASSUMPTION: LOAD_DIRECTION_ASSUMPTION: transverse +y force plus bending moment about +z; worst-axis alignment declared (near-axisymmetric stack)
** ASSUMPTION: MEMORY_GATE_MESH_ADAPTATION: seeds 16/10/8 mm replace draft 4/2/1 mm; <=4000 C3D8R; 6.7 mm ligament NOT resolved with 3 elements; convergence assessed on global maxima trend only
** ASSUMPTION: ARM_LOADS_BOUNDED_BY_ASSUMPTION: quintic peak accel from LC-010 trajectory x r_eff=0.7 m; e-stop = 2x maneuver; arm inertia tensor not reduced (arm cases shown to be non-governing)
** ASSUMPTION: ELEMENT_FORMULATION_CHANGE: C3D8R (1 IP + hourglass control) replaced by C3D8I (2x2x2 full integration + incompatible modes). No hourglass modes exist in C3D8I, so ALLAE must collapse to ~0; this is the acceptance test
** ASSUMPTION: IP_COUNT_COMPARABILITY: C3D8R reports 1 centroidal integration point, so its 'peak von Mises' is already an element-average; C3D8I reports 8 Gauss points, whose peak is systematically above the element average in a bending field. C3D8R peak must therefore be compared against the C3D8I ELEMENT-AVERAGED value, not against the C3D8I peak IP value
** ASSUMPTION: THROUGH_THICKNESS_REFINEMENT: kz multiplies the layer count of every z segment (bridge 2kz, stage B annulus 2kz, stage B web 1kz, stage A 2kz); kz=1 reproduces the FEA-1 plane list node-for-node
** ASSUMPTION: STAIRCASE_BOUNDARY_SINGULARITY: the dia-40 / dia-100 / OD-150 circular boundaries are stepped at element corners, so each in-plane refinement level presents a DIFFERENT discrete re-entrant-corner set. Peak stress at those steps cannot converge by construction and is excluded from the region-stress convergence metric (fixed 10 mm geometric band)
** ASSUMPTION: POINT_COUPLING_SINGULARITY: the arm-base RP kinematic coupling and the per-bolt kinematic couplings are point/patch constraints; peak stress in their immediate neighbourhood rises monotonically with refinement as a constraint singularity and is reported separately (ODR-11 singularity rule), with a fixed 15 mm exclusion radius for the far-field metric
** Case load: F_y=0.31050820236037147 N, M_z=217.35574165226001 N*mm (m_arm*(quintic q2_acc_max*r_eff); M=F*r_eff)
**
*NODE
1000001,-80.000000,-80.000000,0.000000
1000002,-70.000000,-80.000000,0.000000
1000003,-60.000000,-80.000000,0.000000
1000004,-50.000000,-80.000000,0.000000
1000005,-40.000000,-80.000000,0.000000
1000006,-30.000000,-80.000000,0.000000
1000007,-20.000000,-80.000000,0.000000
1000008,-10.000000,-80.000000,0.000000
1000009,0.000000,-80.000000,0.000000
1000010,10.000000,-80.000000,0.000000
1000011,20.000000,-80.000000,0.000000
1000012,30.000000,-80.000000,0.000000
1000013,40.000000,-80.000000,0.000000
1000014,50.000000,-80.000000,0.000000
1000015,60.000000,-80.000000,0.000000
1000016,70.000000,-80.000000,0.000000
1000017,80.000000,-80.000000,0.000000
1001001,-80.000000,-70.000000,0.000000
1001002,-70.000000,-70.000000,0.000000
1001003,-60.000000,-70.000000,0.000000
1001004,-50.000000,-70.000000,0.000000
1001005,-40.000000,-70.000000,0.000000
1001006,-30.000000,-70.000000,0.000000
1001007,-20.000000,-70.000000,0.000000
1001008,-10.000000,-70.000000,0.000000
1001009,0.000000,-70.000000,0.000000
1001010,10.000000,-70.000000,0.000000
1001011,20.000000,-70.000000,0.000000
1001012,30.000000,-70.000000,0.000000
1001013,40.000000,-70.000000,0.000000
1001014,50.000000,-70.000000,0.000000
1001015,60.000000,-70.000000,0.000000
1001016,70.000000,-70.000000,0.000000
1001017,80.000000,-70.000000,0.000000
1002001,-80.000000,-60.000000,0.000000
1002002,-70.000000,-60.000000,0.000000
1002003,-60.000000,-60.000000,0.000000
1002004,-50.000000,-60.000000,0.000000
1002005,-40.000000,-60.000000,0.000000
1002006,-30.000000,-60.000000,0.000000
1002007,-20.000000,-60.000000,0.000000
1002008,-10.000000,-60.000000,0.000000
1002009,0.000000,-60.000000,0.000000
1002010,10.000000,-60.000000,0.000000
1002011,20.000000,-60.000000,0.000000
1002012,30.000000,-60.000000,0.000000
1002013,40.000000,-60.000000,0.000000
1002014,50.000000,-60.000000,0.000000
1002015,60.000000,-60.000000,0.000000
1002016,70.000000,-60.000000,0.000000
1002017,80.000000,-60.000000,0.000000
1003001,-80.000000,-50.000000,0.000000
1003002,-70.000000,-50.000000,0.000000
1003003,-60.000000,-50.000000,0.000000
1003004,-50.000000,-50.000000,0.000000
1003005,-40.000000,-50.000000,0.000000
1003006,-30.000000,-50.000000,0.000000
1003007,-20.000000,-50.000000,0.000000
1003008,-10.000000,-50.000000,0.000000
1003009,0.000000,-50.000000,0.000000
1003010,10.000000,-50.000000,0.000000
1003011,20.000000,-50.000000,0.000000
1003012,30.000000,-50.000000,0.000000
1003013,40.000000,-50.000000,0.000000
1003014,50.000000,-50.000000,0.000000
1003015,60.000000,-50.000000,0.000000
1003016,70.000000,-50.000000,0.000000
1003017,80.000000,-50.000000,0.000000
1004001,-80.000000,-40.000000,0.000000
1004002,-70.000000,-40.000000,0.000000
1004003,-60.000000,-40.000000,0.000000
1004004,-50.000000,-40.000000,0.000000
1004005,-40.000000,-40.000000,0.000000
1004006,-30.000000,-40.000000,0.000000
1004007,-20.000000,-40.000000,0.000000
1004008,-10.000000,-40.000000,0.000000
1004009,0.000000,-40.000000,0.000000
1004010,10.000000,-40.000000,0.000000
1004011,20.000000,-40.000000,0.000000
1004012,30.000000,-40.000000,0.000000
1004013,40.000000,-40.000000,0.000000
1004014,50.000000,-40.000000,0.000000
1004015,60.000000,-40.000000,0.000000
1004016,70.000000,-40.000000,0.000000
1004017,80.000000,-40.000000,0.000000
1005001,-80.000000,-30.000000,0.000000
1005002,-70.000000,-30.000000,0.000000
1005003,-60.000000,-30.000000,0.000000
1005004,-50.000000,-30.000000,0.000000
1005005,-40.000000,-30.000000,0.000000
1005006,-30.000000,-30.000000,0.000000
1005007,-20.000000,-30.000000,0.000000
1005008,-10.000000,-30.000000,0.000000
1005009,0.000000,-30.000000,0.000000
1005010,10.000000,-30.000000,0.000000
1005011,20.000000,-30.000000,0.000000
1005012,30.000000,-30.000000,0.000000
1005013,40.000000,-30.000000,0.000000
1005014,50.000000,-30.000000,0.000000
1005015,60.000000,-30.000000,0.000000
1005016,70.000000,-30.000000,0.000000
1005017,80.000000,-30.000000,0.000000
1006001,-80.000000,-20.000000,0.000000
1006002,-70.000000,-20.000000,0.000000
1006003,-60.000000,-20.000000,0.000000
1006004,-50.000000,-20.000000,0.000000
1006005,-40.000000,-20.000000,0.000000
1006006,-30.000000,-20.000000,0.000000
1006007,-20.000000,-20.000000,0.000000
1006008,-10.000000,-20.000000,0.000000
1006009,0.000000,-20.000000,0.000000
1006010,10.000000,-20.000000,0.000000
1006011,20.000000,-20.000000,0.000000
1006012,30.000000,-20.000000,0.000000
1006013,40.000000,-20.000000,0.000000
1006014,50.000000,-20.000000,0.000000
1006015,60.000000,-20.000000,0.000000
1006016,70.000000,-20.000000,0.000000
1006017,80.000000,-20.000000,0.000000
1007001,-80.000000,-10.000000,0.000000
1007002,-70.000000,-10.000000,0.000000
1007003,-60.000000,-10.000000,0.000000
1007004,-50.000000,-10.000000,0.000000
1007005,-40.000000,-10.000000,0.000000
1007006,-30.000000,-10.000000,0.000000
1007007,-20.000000,-10.000000,0.000000
1007011,20.000000,-10.000000,0.000000
1007012,30.000000,-10.000000,0.000000
1007013,40.000000,-10.000000,0.000000
1007014,50.000000,-10.000000,0.000000
1007015,60.000000,-10.000000,0.000000
1007016,70.000000,-10.000000,0.000000
1007017,80.000000,-10.000000,0.000000
1008001,-80.000000,0.000000,0.000000
1008002,-70.000000,0.000000,0.000000
1008003,-60.000000,0.000000,0.000000
1008004,-50.000000,0.000000,0.000000
1008005,-40.000000,0.000000,0.000000
1008006,-30.000000,0.000000,0.000000
1008007,-20.000000,0.000000,0.000000
1008011,20.000000,0.000000,0.000000
1008012,30.000000,0.000000,0.000000
1008013,40.000000,0.000000,0.000000
1008014,50.000000,0.000000,0.000000
1008015,60.000000,0.000000,0.000000
1008016,70.000000,0.000000,0.000000
1008017,80.000000,0.000000,0.000000
1009001,-80.000000,10.000000,0.000000
1009002,-70.000000,10.000000,0.000000
1009003,-60.000000,10.000000,0.000000
1009004,-50.000000,10.000000,0.000000
1009005,-40.000000,10.000000,0.000000
1009006,-30.000000,10.000000,0.000000
1009007,-20.000000,10.000000,0.000000
1009011,20.000000,10.000000,0.000000
1009012,30.000000,10.000000,0.000000
1009013,40.000000,10.000000,0.000000
1009014,50.000000,10.000000,0.000000
1009015,60.000000,10.000000,0.000000
1009016,70.000000,10.000000,0.000000
1009017,80.000000,10.000000,0.000000
1010001,-80.000000,20.000000,0.000000
1010002,-70.000000,20.000000,0.000000
1010003,-60.000000,20.000000,0.000000
1010004,-50.000000,20.000000,0.000000
1010005,-40.000000,20.000000,0.000000
1010006,-30.000000,20.000000,0.000000
1010007,-20.000000,20.000000,0.000000
1010008,-10.000000,20.000000,0.000000
1010009,0.000000,20.000000,0.000000
1010010,10.000000,20.000000,0.000000
1010011,20.000000,20.000000,0.000000
1010012,30.000000,20.000000,0.000000
1010013,40.000000,20.000000,0.000000
1010014,50.000000,20.000000,0.000000
1010015,60.000000,20.000000,0.000000
1010016,70.000000,20.000000,0.000000
1010017,80.000000,20.000000,0.000000
1011001,-80.000000,30.000000,0.000000
1011002,-70.000000,30.000000,0.000000
1011003,-60.000000,30.000000,0.000000
1011004,-50.000000,30.000000,0.000000
1011005,-40.000000,30.000000,0.000000
1011006,-30.000000,30.000000,0.000000
1011007,-20.000000,30.000000,0.000000
1011008,-10.000000,30.000000,0.000000
1011009,0.000000,30.000000,0.000000
1011010,10.000000,30.000000,0.000000
1011011,20.000000,30.000000,0.000000
1011012,30.000000,30.000000,0.000000
1011013,40.000000,30.000000,0.000000
1011014,50.000000,30.000000,0.000000
1011015,60.000000,30.000000,0.000000
1011016,70.000000,30.000000,0.000000
1011017,80.000000,30.000000,0.000000
1012001,-80.000000,40.000000,0.000000
1012002,-70.000000,40.000000,0.000000
1012003,-60.000000,40.000000,0.000000
1012004,-50.000000,40.000000,0.000000
1012005,-40.000000,40.000000,0.000000
1012006,-30.000000,40.000000,0.000000
1012007,-20.000000,40.000000,0.000000
1012008,-10.000000,40.000000,0.000000
1012009,0.000000,40.000000,0.000000
1012010,10.000000,40.000000,0.000000
1012011,20.000000,40.000000,0.000000
1012012,30.000000,40.000000,0.000000
1012013,40.000000,40.000000,0.000000
1012014,50.000000,40.000000,0.000000
1012015,60.000000,40.000000,0.000000
1012016,70.000000,40.000000,0.000000
1012017,80.000000,40.000000,0.000000
1013001,-80.000000,50.000000,0.000000
1013002,-70.000000,50.000000,0.000000
1013003,-60.000000,50.000000,0.000000
1013004,-50.000000,50.000000,0.000000
1013005,-40.000000,50.000000,0.000000
1013006,-30.000000,50.000000,0.000000
1013007,-20.000000,50.000000,0.000000
1013008,-10.000000,50.000000,0.000000
1013009,0.000000,50.000000,0.000000
1013010,10.000000,50.000000,0.000000
1013011,20.000000,50.000000,0.000000
1013012,30.000000,50.000000,0.000000
1013013,40.000000,50.000000,0.000000
1013014,50.000000,50.000000,0.000000
1013015,60.000000,50.000000,0.000000
1013016,70.000000,50.000000,0.000000
1013017,80.000000,50.000000,0.000000
1014001,-80.000000,60.000000,0.000000
1014002,-70.000000,60.000000,0.000000
1014003,-60.000000,60.000000,0.000000
1014004,-50.000000,60.000000,0.000000
1014005,-40.000000,60.000000,0.000000
1014006,-30.000000,60.000000,0.000000
1014007,-20.000000,60.000000,0.000000
1014008,-10.000000,60.000000,0.000000
1014009,0.000000,60.000000,0.000000
1014010,10.000000,60.000000,0.000000
1014011,20.000000,60.000000,0.000000
1014012,30.000000,60.000000,0.000000
1014013,40.000000,60.000000,0.000000
1014014,50.000000,60.000000,0.000000
1014015,60.000000,60.000000,0.000000
1014016,70.000000,60.000000,0.000000
1014017,80.000000,60.000000,0.000000
1015001,-80.000000,70.000000,0.000000
1015002,-70.000000,70.000000,0.000000
1015003,-60.000000,70.000000,0.000000
1015004,-50.000000,70.000000,0.000000
1015005,-40.000000,70.000000,0.000000
1015006,-30.000000,70.000000,0.000000
1015007,-20.000000,70.000000,0.000000
1015008,-10.000000,70.000000,0.000000
1015009,0.000000,70.000000,0.000000
1015010,10.000000,70.000000,0.000000
1015011,20.000000,70.000000,0.000000
1015012,30.000000,70.000000,0.000000
1015013,40.000000,70.000000,0.000000
1015014,50.000000,70.000000,0.000000
1015015,60.000000,70.000000,0.000000
1015016,70.000000,70.000000,0.000000
1015017,80.000000,70.000000,0.000000
1016001,-80.000000,80.000000,0.000000
1016002,-70.000000,80.000000,0.000000
1016003,-60.000000,80.000000,0.000000
1016004,-50.000000,80.000000,0.000000
1016005,-40.000000,80.000000,0.000000
1016006,-30.000000,80.000000,0.000000
1016007,-20.000000,80.000000,0.000000
1016008,-10.000000,80.000000,0.000000
1016009,0.000000,80.000000,0.000000
1016010,10.000000,80.000000,0.000000
1016011,20.000000,80.000000,0.000000
1016012,30.000000,80.000000,0.000000
1016013,40.000000,80.000000,0.000000
1016014,50.000000,80.000000,0.000000
1016015,60.000000,80.000000,0.000000
1016016,70.000000,80.000000,0.000000
1016017,80.000000,80.000000,0.000000
2000001,-80.000000,-80.000000,2.687500
2000002,-70.000000,-80.000000,2.687500
2000003,-60.000000,-80.000000,2.687500
2000004,-50.000000,-80.000000,2.687500
2000005,-40.000000,-80.000000,2.687500
2000006,-30.000000,-80.000000,2.687500
2000007,-20.000000,-80.000000,2.687500
2000008,-10.000000,-80.000000,2.687500
2000009,0.000000,-80.000000,2.687500
2000010,10.000000,-80.000000,2.687500
2000011,20.000000,-80.000000,2.687500
2000012,30.000000,-80.000000,2.687500
2000013,40.000000,-80.000000,2.687500
2000014,50.000000,-80.000000,2.687500
2000015,60.000000,-80.000000,2.687500
2000016,70.000000,-80.000000,2.687500
2000017,80.000000,-80.000000,2.687500
2001001,-80.000000,-70.000000,2.687500
2001002,-70.000000,-70.000000,2.687500
2001003,-60.000000,-70.000000,2.687500
2001004,-50.000000,-70.000000,2.687500
2001005,-40.000000,-70.000000,2.687500
2001006,-30.000000,-70.000000,2.687500
2001007,-20.000000,-70.000000,2.687500
2001008,-10.000000,-70.000000,2.687500
2001009,0.000000,-70.000000,2.687500
2001010,10.000000,-70.000000,2.687500
2001011,20.000000,-70.000000,2.687500
2001012,30.000000,-70.000000,2.687500
2001013,40.000000,-70.000000,2.687500
2001014,50.000000,-70.000000,2.687500
2001015,60.000000,-70.000000,2.687500
2001016,70.000000,-70.000000,2.687500
2001017,80.000000,-70.000000,2.687500
2002001,-80.000000,-60.000000,2.687500
2002002,-70.000000,-60.000000,2.687500
2002003,-60.000000,-60.000000,2.687500
2002004,-50.000000,-60.000000,2.687500
2002005,-40.000000,-60.000000,2.687500
2002006,-30.000000,-60.000000,2.687500
2002007,-20.000000,-60.000000,2.687500
2002008,-10.000000,-60.000000,2.687500
2002009,0.000000,-60.000000,2.687500
2002010,10.000000,-60.000000,2.687500
2002011,20.000000,-60.000000,2.687500
2002012,30.000000,-60.000000,2.687500
2002013,40.000000,-60.000000,2.687500
2002014,50.000000,-60.000000,2.687500
2002015,60.000000,-60.000000,2.687500
2002016,70.000000,-60.000000,2.687500
2002017,80.000000,-60.000000,2.687500
2003001,-80.000000,-50.000000,2.687500
2003002,-70.000000,-50.000000,2.687500
2003003,-60.000000,-50.000000,2.687500
2003004,-50.000000,-50.000000,2.687500
2003005,-40.000000,-50.000000,2.687500
2003006,-30.000000,-50.000000,2.687500
2003007,-20.000000,-50.000000,2.687500
2003008,-10.000000,-50.000000,2.687500
2003009,0.000000,-50.000000,2.687500
2003010,10.000000,-50.000000,2.687500
2003011,20.000000,-50.000000,2.687500
2003012,30.000000,-50.000000,2.687500
2003013,40.000000,-50.000000,2.687500
2003014,50.000000,-50.000000,2.687500
2003015,60.000000,-50.000000,2.687500
2003016,70.000000,-50.000000,2.687500
2003017,80.000000,-50.000000,2.687500
2004001,-80.000000,-40.000000,2.687500
2004002,-70.000000,-40.000000,2.687500
2004003,-60.000000,-40.000000,2.687500
2004004,-50.000000,-40.000000,2.687500
2004005,-40.000000,-40.000000,2.687500
2004006,-30.000000,-40.000000,2.687500
2004007,-20.000000,-40.000000,2.687500
2004008,-10.000000,-40.000000,2.687500
2004009,0.000000,-40.000000,2.687500
2004010,10.000000,-40.000000,2.687500
2004011,20.000000,-40.000000,2.687500
2004012,30.000000,-40.000000,2.687500
2004013,40.000000,-40.000000,2.687500
2004014,50.000000,-40.000000,2.687500
2004015,60.000000,-40.000000,2.687500
2004016,70.000000,-40.000000,2.687500
2004017,80.000000,-40.000000,2.687500
2005001,-80.000000,-30.000000,2.687500
2005002,-70.000000,-30.000000,2.687500
2005003,-60.000000,-30.000000,2.687500
2005004,-50.000000,-30.000000,2.687500
2005005,-40.000000,-30.000000,2.687500
2005006,-30.000000,-30.000000,2.687500
2005007,-20.000000,-30.000000,2.687500
2005008,-10.000000,-30.000000,2.687500
2005009,0.000000,-30.000000,2.687500
2005010,10.000000,-30.000000,2.687500
2005011,20.000000,-30.000000,2.687500
2005012,30.000000,-30.000000,2.687500
2005013,40.000000,-30.000000,2.687500
2005014,50.000000,-30.000000,2.687500
2005015,60.000000,-30.000000,2.687500
2005016,70.000000,-30.000000,2.687500
2005017,80.000000,-30.000000,2.687500
2006001,-80.000000,-20.000000,2.687500
2006002,-70.000000,-20.000000,2.687500
2006003,-60.000000,-20.000000,2.687500
2006004,-50.000000,-20.000000,2.687500
2006005,-40.000000,-20.000000,2.687500
2006006,-30.000000,-20.000000,2.687500
2006007,-20.000000,-20.000000,2.687500
2006008,-10.000000,-20.000000,2.687500
2006009,0.000000,-20.000000,2.687500
2006010,10.000000,-20.000000,2.687500
2006011,20.000000,-20.000000,2.687500
2006012,30.000000,-20.000000,2.687500
2006013,40.000000,-20.000000,2.687500
2006014,50.000000,-20.000000,2.687500
2006015,60.000000,-20.000000,2.687500
2006016,70.000000,-20.000000,2.687500
2006017,80.000000,-20.000000,2.687500
2007001,-80.000000,-10.000000,2.687500
2007002,-70.000000,-10.000000,2.687500
2007003,-60.000000,-10.000000,2.687500
2007004,-50.000000,-10.000000,2.687500
2007005,-40.000000,-10.000000,2.687500
2007006,-30.000000,-10.000000,2.687500
2007007,-20.000000,-10.000000,2.687500
2007011,20.000000,-10.000000,2.687500
2007012,30.000000,-10.000000,2.687500
2007013,40.000000,-10.000000,2.687500
2007014,50.000000,-10.000000,2.687500
2007015,60.000000,-10.000000,2.687500
2007016,70.000000,-10.000000,2.687500
2007017,80.000000,-10.000000,2.687500
2008001,-80.000000,0.000000,2.687500
2008002,-70.000000,0.000000,2.687500
2008003,-60.000000,0.000000,2.687500
2008004,-50.000000,0.000000,2.687500
2008005,-40.000000,0.000000,2.687500
2008006,-30.000000,0.000000,2.687500
2008007,-20.000000,0.000000,2.687500
2008011,20.000000,0.000000,2.687500
2008012,30.000000,0.000000,2.687500
2008013,40.000000,0.000000,2.687500
2008014,50.000000,0.000000,2.687500
2008015,60.000000,0.000000,2.687500
2008016,70.000000,0.000000,2.687500
2008017,80.000000,0.000000,2.687500
2009001,-80.000000,10.000000,2.687500
2009002,-70.000000,10.000000,2.687500
2009003,-60.000000,10.000000,2.687500
2009004,-50.000000,10.000000,2.687500
2009005,-40.000000,10.000000,2.687500
2009006,-30.000000,10.000000,2.687500
2009007,-20.000000,10.000000,2.687500
2009011,20.000000,10.000000,2.687500
2009012,30.000000,10.000000,2.687500
2009013,40.000000,10.000000,2.687500
2009014,50.000000,10.000000,2.687500
2009015,60.000000,10.000000,2.687500
2009016,70.000000,10.000000,2.687500
2009017,80.000000,10.000000,2.687500
2010001,-80.000000,20.000000,2.687500
2010002,-70.000000,20.000000,2.687500
2010003,-60.000000,20.000000,2.687500
2010004,-50.000000,20.000000,2.687500
2010005,-40.000000,20.000000,2.687500
2010006,-30.000000,20.000000,2.687500
2010007,-20.000000,20.000000,2.687500
2010008,-10.000000,20.000000,2.687500
2010009,0.000000,20.000000,2.687500
2010010,10.000000,20.000000,2.687500
2010011,20.000000,20.000000,2.687500
2010012,30.000000,20.000000,2.687500
2010013,40.000000,20.000000,2.687500
2010014,50.000000,20.000000,2.687500
2010015,60.000000,20.000000,2.687500
2010016,70.000000,20.000000,2.687500
2010017,80.000000,20.000000,2.687500
2011001,-80.000000,30.000000,2.687500
2011002,-70.000000,30.000000,2.687500
2011003,-60.000000,30.000000,2.687500
2011004,-50.000000,30.000000,2.687500
2011005,-40.000000,30.000000,2.687500
2011006,-30.000000,30.000000,2.687500
2011007,-20.000000,30.000000,2.687500
2011008,-10.000000,30.000000,2.687500
2011009,0.000000,30.000000,2.687500
2011010,10.000000,30.000000,2.687500
2011011,20.000000,30.000000,2.687500
2011012,30.000000,30.000000,2.687500
2011013,40.000000,30.000000,2.687500
2011014,50.000000,30.000000,2.687500
2011015,60.000000,30.000000,2.687500
2011016,70.000000,30.000000,2.687500
2011017,80.000000,30.000000,2.687500
2012001,-80.000000,40.000000,2.687500
2012002,-70.000000,40.000000,2.687500
2012003,-60.000000,40.000000,2.687500
2012004,-50.000000,40.000000,2.687500
2012005,-40.000000,40.000000,2.687500
2012006,-30.000000,40.000000,2.687500
2012007,-20.000000,40.000000,2.687500
2012008,-10.000000,40.000000,2.687500
2012009,0.000000,40.000000,2.687500
2012010,10.000000,40.000000,2.687500
2012011,20.000000,40.000000,2.687500
2012012,30.000000,40.000000,2.687500
2012013,40.000000,40.000000,2.687500
2012014,50.000000,40.000000,2.687500
2012015,60.000000,40.000000,2.687500
2012016,70.000000,40.000000,2.687500
2012017,80.000000,40.000000,2.687500
2013001,-80.000000,50.000000,2.687500
2013002,-70.000000,50.000000,2.687500
2013003,-60.000000,50.000000,2.687500
2013004,-50.000000,50.000000,2.687500
2013005,-40.000000,50.000000,2.687500
2013006,-30.000000,50.000000,2.687500
2013007,-20.000000,50.000000,2.687500
2013008,-10.000000,50.000000,2.687500
2013009,0.000000,50.000000,2.687500
2013010,10.000000,50.000000,2.687500
2013011,20.000000,50.000000,2.687500
2013012,30.000000,50.000000,2.687500
2013013,40.000000,50.000000,2.687500
2013014,50.000000,50.000000,2.687500
2013015,60.000000,50.000000,2.687500
2013016,70.000000,50.000000,2.687500
2013017,80.000000,50.000000,2.687500
2014001,-80.000000,60.000000,2.687500
2014002,-70.000000,60.000000,2.687500
2014003,-60.000000,60.000000,2.687500
2014004,-50.000000,60.000000,2.687500
2014005,-40.000000,60.000000,2.687500
2014006,-30.000000,60.000000,2.687500
2014007,-20.000000,60.000000,2.687500
2014008,-10.000000,60.000000,2.687500
2014009,0.000000,60.000000,2.687500
2014010,10.000000,60.000000,2.687500
2014011,20.000000,60.000000,2.687500
2014012,30.000000,60.000000,2.687500
2014013,40.000000,60.000000,2.687500
2014014,50.000000,60.000000,2.687500
2014015,60.000000,60.000000,2.687500
2014016,70.000000,60.000000,2.687500
2014017,80.000000,60.000000,2.687500
2015001,-80.000000,70.000000,2.687500
2015002,-70.000000,70.000000,2.687500
2015003,-60.000000,70.000000,2.687500
2015004,-50.000000,70.000000,2.687500
2015005,-40.000000,70.000000,2.687500
2015006,-30.000000,70.000000,2.687500
2015007,-20.000000,70.000000,2.687500
2015008,-10.000000,70.000000,2.687500
2015009,0.000000,70.000000,2.687500
2015010,10.000000,70.000000,2.687500
2015011,20.000000,70.000000,2.687500
2015012,30.000000,70.000000,2.687500
2015013,40.000000,70.000000,2.687500
2015014,50.000000,70.000000,2.687500
2015015,60.000000,70.000000,2.687500
2015016,70.000000,70.000000,2.687500
2015017,80.000000,70.000000,2.687500
2016001,-80.000000,80.000000,2.687500
2016002,-70.000000,80.000000,2.687500
2016003,-60.000000,80.000000,2.687500
2016004,-50.000000,80.000000,2.687500
2016005,-40.000000,80.000000,2.687500
2016006,-30.000000,80.000000,2.687500
2016007,-20.000000,80.000000,2.687500
2016008,-10.000000,80.000000,2.687500
2016009,0.000000,80.000000,2.687500
2016010,10.000000,80.000000,2.687500
2016011,20.000000,80.000000,2.687500
2016012,30.000000,80.000000,2.687500
2016013,40.000000,80.000000,2.687500
2016014,50.000000,80.000000,2.687500
2016015,60.000000,80.000000,2.687500
2016016,70.000000,80.000000,2.687500
2016017,80.000000,80.000000,2.687500
3000001,-80.000000,-80.000000,5.375000
3000002,-70.000000,-80.000000,5.375000
3000003,-60.000000,-80.000000,5.375000
3000004,-50.000000,-80.000000,5.375000
3000005,-40.000000,-80.000000,5.375000
3000006,-30.000000,-80.000000,5.375000
3000007,-20.000000,-80.000000,5.375000
3000008,-10.000000,-80.000000,5.375000
3000009,0.000000,-80.000000,5.375000
3000010,10.000000,-80.000000,5.375000
3000011,20.000000,-80.000000,5.375000
3000012,30.000000,-80.000000,5.375000
3000013,40.000000,-80.000000,5.375000
3000014,50.000000,-80.000000,5.375000
3000015,60.000000,-80.000000,5.375000
3000016,70.000000,-80.000000,5.375000
3000017,80.000000,-80.000000,5.375000
3001001,-80.000000,-70.000000,5.375000
3001002,-70.000000,-70.000000,5.375000
3001003,-60.000000,-70.000000,5.375000
3001004,-50.000000,-70.000000,5.375000
3001005,-40.000000,-70.000000,5.375000
3001006,-30.000000,-70.000000,5.375000
3001007,-20.000000,-70.000000,5.375000
3001008,-10.000000,-70.000000,5.375000
3001009,0.000000,-70.000000,5.375000
3001010,10.000000,-70.000000,5.375000
3001011,20.000000,-70.000000,5.375000
3001012,30.000000,-70.000000,5.375000
3001013,40.000000,-70.000000,5.375000
3001014,50.000000,-70.000000,5.375000
3001015,60.000000,-70.000000,5.375000
3001016,70.000000,-70.000000,5.375000
3001017,80.000000,-70.000000,5.375000
3002001,-80.000000,-60.000000,5.375000
3002002,-70.000000,-60.000000,5.375000
3002003,-60.000000,-60.000000,5.375000
3002004,-50.000000,-60.000000,5.375000
3002005,-40.000000,-60.000000,5.375000
3002006,-30.000000,-60.000000,5.375000
3002007,-20.000000,-60.000000,5.375000
3002008,-10.000000,-60.000000,5.375000
3002009,0.000000,-60.000000,5.375000
3002010,10.000000,-60.000000,5.375000
3002011,20.000000,-60.000000,5.375000
3002012,30.000000,-60.000000,5.375000
3002013,40.000000,-60.000000,5.375000
3002014,50.000000,-60.000000,5.375000
3002015,60.000000,-60.000000,5.375000
3002016,70.000000,-60.000000,5.375000
3002017,80.000000,-60.000000,5.375000
3003001,-80.000000,-50.000000,5.375000
3003002,-70.000000,-50.000000,5.375000
3003003,-60.000000,-50.000000,5.375000
3003004,-50.000000,-50.000000,5.375000
3003005,-40.000000,-50.000000,5.375000
3003006,-30.000000,-50.000000,5.375000
3003007,-20.000000,-50.000000,5.375000
3003008,-10.000000,-50.000000,5.375000
3003009,0.000000,-50.000000,5.375000
3003010,10.000000,-50.000000,5.375000
3003011,20.000000,-50.000000,5.375000
3003012,30.000000,-50.000000,5.375000
3003013,40.000000,-50.000000,5.375000
3003014,50.000000,-50.000000,5.375000
3003015,60.000000,-50.000000,5.375000
3003016,70.000000,-50.000000,5.375000
3003017,80.000000,-50.000000,5.375000
3004001,-80.000000,-40.000000,5.375000
3004002,-70.000000,-40.000000,5.375000
3004003,-60.000000,-40.000000,5.375000
3004004,-50.000000,-40.000000,5.375000
3004005,-40.000000,-40.000000,5.375000
3004006,-30.000000,-40.000000,5.375000
3004007,-20.000000,-40.000000,5.375000
3004008,-10.000000,-40.000000,5.375000
3004009,0.000000,-40.000000,5.375000
3004010,10.000000,-40.000000,5.375000
3004011,20.000000,-40.000000,5.375000
3004012,30.000000,-40.000000,5.375000
3004013,40.000000,-40.000000,5.375000
3004014,50.000000,-40.000000,5.375000
3004015,60.000000,-40.000000,5.375000
3004016,70.000000,-40.000000,5.375000
3004017,80.000000,-40.000000,5.375000
3005001,-80.000000,-30.000000,5.375000
3005002,-70.000000,-30.000000,5.375000
3005003,-60.000000,-30.000000,5.375000
3005004,-50.000000,-30.000000,5.375000
3005005,-40.000000,-30.000000,5.375000
3005006,-30.000000,-30.000000,5.375000
3005007,-20.000000,-30.000000,5.375000
3005008,-10.000000,-30.000000,5.375000
3005009,0.000000,-30.000000,5.375000
3005010,10.000000,-30.000000,5.375000
3005011,20.000000,-30.000000,5.375000
3005012,30.000000,-30.000000,5.375000
3005013,40.000000,-30.000000,5.375000
3005014,50.000000,-30.000000,5.375000
3005015,60.000000,-30.000000,5.375000
3005016,70.000000,-30.000000,5.375000
3005017,80.000000,-30.000000,5.375000
3006001,-80.000000,-20.000000,5.375000
3006002,-70.000000,-20.000000,5.375000
3006003,-60.000000,-20.000000,5.375000
3006004,-50.000000,-20.000000,5.375000
3006005,-40.000000,-20.000000,5.375000
3006006,-30.000000,-20.000000,5.375000
3006007,-20.000000,-20.000000,5.375000
3006008,-10.000000,-20.000000,5.375000
3006009,0.000000,-20.000000,5.375000
3006010,10.000000,-20.000000,5.375000
3006011,20.000000,-20.000000,5.375000
3006012,30.000000,-20.000000,5.375000
3006013,40.000000,-20.000000,5.375000
3006014,50.000000,-20.000000,5.375000
3006015,60.000000,-20.000000,5.375000
3006016,70.000000,-20.000000,5.375000
3006017,80.000000,-20.000000,5.375000
3007001,-80.000000,-10.000000,5.375000
3007002,-70.000000,-10.000000,5.375000
3007003,-60.000000,-10.000000,5.375000
3007004,-50.000000,-10.000000,5.375000
3007005,-40.000000,-10.000000,5.375000
3007006,-30.000000,-10.000000,5.375000
3007007,-20.000000,-10.000000,5.375000
3007011,20.000000,-10.000000,5.375000
3007012,30.000000,-10.000000,5.375000
3007013,40.000000,-10.000000,5.375000
3007014,50.000000,-10.000000,5.375000
3007015,60.000000,-10.000000,5.375000
3007016,70.000000,-10.000000,5.375000
3007017,80.000000,-10.000000,5.375000
3008001,-80.000000,0.000000,5.375000
3008002,-70.000000,0.000000,5.375000
3008003,-60.000000,0.000000,5.375000
3008004,-50.000000,0.000000,5.375000
3008005,-40.000000,0.000000,5.375000
3008006,-30.000000,0.000000,5.375000
3008007,-20.000000,0.000000,5.375000
3008011,20.000000,0.000000,5.375000
3008012,30.000000,0.000000,5.375000
3008013,40.000000,0.000000,5.375000
3008014,50.000000,0.000000,5.375000
3008015,60.000000,0.000000,5.375000
3008016,70.000000,0.000000,5.375000
3008017,80.000000,0.000000,5.375000
3009001,-80.000000,10.000000,5.375000
3009002,-70.000000,10.000000,5.375000
3009003,-60.000000,10.000000,5.375000
3009004,-50.000000,10.000000,5.375000
3009005,-40.000000,10.000000,5.375000
3009006,-30.000000,10.000000,5.375000
3009007,-20.000000,10.000000,5.375000
3009011,20.000000,10.000000,5.375000
3009012,30.000000,10.000000,5.375000
3009013,40.000000,10.000000,5.375000
3009014,50.000000,10.000000,5.375000
3009015,60.000000,10.000000,5.375000
3009016,70.000000,10.000000,5.375000
3009017,80.000000,10.000000,5.375000
3010001,-80.000000,20.000000,5.375000
3010002,-70.000000,20.000000,5.375000
3010003,-60.000000,20.000000,5.375000
3010004,-50.000000,20.000000,5.375000
3010005,-40.000000,20.000000,5.375000
3010006,-30.000000,20.000000,5.375000
3010007,-20.000000,20.000000,5.375000
3010008,-10.000000,20.000000,5.375000
3010009,0.000000,20.000000,5.375000
3010010,10.000000,20.000000,5.375000
3010011,20.000000,20.000000,5.375000
3010012,30.000000,20.000000,5.375000
3010013,40.000000,20.000000,5.375000
3010014,50.000000,20.000000,5.375000
3010015,60.000000,20.000000,5.375000
3010016,70.000000,20.000000,5.375000
3010017,80.000000,20.000000,5.375000
3011001,-80.000000,30.000000,5.375000
3011002,-70.000000,30.000000,5.375000
3011003,-60.000000,30.000000,5.375000
3011004,-50.000000,30.000000,5.375000
3011005,-40.000000,30.000000,5.375000
3011006,-30.000000,30.000000,5.375000
3011007,-20.000000,30.000000,5.375000
3011008,-10.000000,30.000000,5.375000
3011009,0.000000,30.000000,5.375000
3011010,10.000000,30.000000,5.375000
3011011,20.000000,30.000000,5.375000
3011012,30.000000,30.000000,5.375000
3011013,40.000000,30.000000,5.375000
3011014,50.000000,30.000000,5.375000
3011015,60.000000,30.000000,5.375000
3011016,70.000000,30.000000,5.375000
3011017,80.000000,30.000000,5.375000
3012001,-80.000000,40.000000,5.375000
3012002,-70.000000,40.000000,5.375000
3012003,-60.000000,40.000000,5.375000
3012004,-50.000000,40.000000,5.375000
3012005,-40.000000,40.000000,5.375000
3012006,-30.000000,40.000000,5.375000
3012007,-20.000000,40.000000,5.375000
3012008,-10.000000,40.000000,5.375000
3012009,0.000000,40.000000,5.375000
3012010,10.000000,40.000000,5.375000
3012011,20.000000,40.000000,5.375000
3012012,30.000000,40.000000,5.375000
3012013,40.000000,40.000000,5.375000
3012014,50.000000,40.000000,5.375000
3012015,60.000000,40.000000,5.375000
3012016,70.000000,40.000000,5.375000
3012017,80.000000,40.000000,5.375000
3013001,-80.000000,50.000000,5.375000
3013002,-70.000000,50.000000,5.375000
3013003,-60.000000,50.000000,5.375000
3013004,-50.000000,50.000000,5.375000
3013005,-40.000000,50.000000,5.375000
3013006,-30.000000,50.000000,5.375000
3013007,-20.000000,50.000000,5.375000
3013008,-10.000000,50.000000,5.375000
3013009,0.000000,50.000000,5.375000
3013010,10.000000,50.000000,5.375000
3013011,20.000000,50.000000,5.375000
3013012,30.000000,50.000000,5.375000
3013013,40.000000,50.000000,5.375000
3013014,50.000000,50.000000,5.375000
3013015,60.000000,50.000000,5.375000
3013016,70.000000,50.000000,5.375000
3013017,80.000000,50.000000,5.375000
3014001,-80.000000,60.000000,5.375000
3014002,-70.000000,60.000000,5.375000
3014003,-60.000000,60.000000,5.375000
3014004,-50.000000,60.000000,5.375000
3014005,-40.000000,60.000000,5.375000
3014006,-30.000000,60.000000,5.375000
3014007,-20.000000,60.000000,5.375000
3014008,-10.000000,60.000000,5.375000
3014009,0.000000,60.000000,5.375000
3014010,10.000000,60.000000,5.375000
3014011,20.000000,60.000000,5.375000
3014012,30.000000,60.000000,5.375000
3014013,40.000000,60.000000,5.375000
3014014,50.000000,60.000000,5.375000
3014015,60.000000,60.000000,5.375000
3014016,70.000000,60.000000,5.375000
3014017,80.000000,60.000000,5.375000
3015001,-80.000000,70.000000,5.375000
3015002,-70.000000,70.000000,5.375000
3015003,-60.000000,70.000000,5.375000
3015004,-50.000000,70.000000,5.375000
3015005,-40.000000,70.000000,5.375000
3015006,-30.000000,70.000000,5.375000
3015007,-20.000000,70.000000,5.375000
3015008,-10.000000,70.000000,5.375000
3015009,0.000000,70.000000,5.375000
3015010,10.000000,70.000000,5.375000
3015011,20.000000,70.000000,5.375000
3015012,30.000000,70.000000,5.375000
3015013,40.000000,70.000000,5.375000
3015014,50.000000,70.000000,5.375000
3015015,60.000000,70.000000,5.375000
3015016,70.000000,70.000000,5.375000
3015017,80.000000,70.000000,5.375000
3016001,-80.000000,80.000000,5.375000
3016002,-70.000000,80.000000,5.375000
3016003,-60.000000,80.000000,5.375000
3016004,-50.000000,80.000000,5.375000
3016005,-40.000000,80.000000,5.375000
3016006,-30.000000,80.000000,5.375000
3016007,-20.000000,80.000000,5.375000
3016008,-10.000000,80.000000,5.375000
3016009,0.000000,80.000000,5.375000
3016010,10.000000,80.000000,5.375000
3016011,20.000000,80.000000,5.375000
3016012,30.000000,80.000000,5.375000
3016013,40.000000,80.000000,5.375000
3016014,50.000000,80.000000,5.375000
3016015,60.000000,80.000000,5.375000
3016016,70.000000,80.000000,5.375000
3016017,80.000000,80.000000,5.375000
4000001,-80.000000,-80.000000,8.062500
4000002,-70.000000,-80.000000,8.062500
4000003,-60.000000,-80.000000,8.062500
4000004,-50.000000,-80.000000,8.062500
4000005,-40.000000,-80.000000,8.062500
4000006,-30.000000,-80.000000,8.062500
4000007,-20.000000,-80.000000,8.062500
4000008,-10.000000,-80.000000,8.062500
4000009,0.000000,-80.000000,8.062500
4000010,10.000000,-80.000000,8.062500
4000011,20.000000,-80.000000,8.062500
4000012,30.000000,-80.000000,8.062500
4000013,40.000000,-80.000000,8.062500
4000014,50.000000,-80.000000,8.062500
4000015,60.000000,-80.000000,8.062500
4000016,70.000000,-80.000000,8.062500
4000017,80.000000,-80.000000,8.062500
4001001,-80.000000,-70.000000,8.062500
4001002,-70.000000,-70.000000,8.062500
4001003,-60.000000,-70.000000,8.062500
4001004,-50.000000,-70.000000,8.062500
4001005,-40.000000,-70.000000,8.062500
4001006,-30.000000,-70.000000,8.062500
4001007,-20.000000,-70.000000,8.062500
4001008,-10.000000,-70.000000,8.062500
4001009,0.000000,-70.000000,8.062500
4001010,10.000000,-70.000000,8.062500
4001011,20.000000,-70.000000,8.062500
4001012,30.000000,-70.000000,8.062500
4001013,40.000000,-70.000000,8.062500
4001014,50.000000,-70.000000,8.062500
4001015,60.000000,-70.000000,8.062500
4001016,70.000000,-70.000000,8.062500
4001017,80.000000,-70.000000,8.062500
4002001,-80.000000,-60.000000,8.062500
4002002,-70.000000,-60.000000,8.062500
4002003,-60.000000,-60.000000,8.062500
4002004,-50.000000,-60.000000,8.062500
4002005,-40.000000,-60.000000,8.062500
4002006,-30.000000,-60.000000,8.062500
4002007,-20.000000,-60.000000,8.062500
4002008,-10.000000,-60.000000,8.062500
4002009,0.000000,-60.000000,8.062500
4002010,10.000000,-60.000000,8.062500
4002011,20.000000,-60.000000,8.062500
4002012,30.000000,-60.000000,8.062500
4002013,40.000000,-60.000000,8.062500
4002014,50.000000,-60.000000,8.062500
4002015,60.000000,-60.000000,8.062500
4002016,70.000000,-60.000000,8.062500
4002017,80.000000,-60.000000,8.062500
4003001,-80.000000,-50.000000,8.062500
4003002,-70.000000,-50.000000,8.062500
4003003,-60.000000,-50.000000,8.062500
4003004,-50.000000,-50.000000,8.062500
4003005,-40.000000,-50.000000,8.062500
4003006,-30.000000,-50.000000,8.062500
4003007,-20.000000,-50.000000,8.062500
4003008,-10.000000,-50.000000,8.062500
4003009,0.000000,-50.000000,8.062500
4003010,10.000000,-50.000000,8.062500
4003011,20.000000,-50.000000,8.062500
4003012,30.000000,-50.000000,8.062500
4003013,40.000000,-50.000000,8.062500
4003014,50.000000,-50.000000,8.062500
4003015,60.000000,-50.000000,8.062500
4003016,70.000000,-50.000000,8.062500
4003017,80.000000,-50.000000,8.062500
4004001,-80.000000,-40.000000,8.062500
4004002,-70.000000,-40.000000,8.062500
4004003,-60.000000,-40.000000,8.062500
4004004,-50.000000,-40.000000,8.062500
4004005,-40.000000,-40.000000,8.062500
4004006,-30.000000,-40.000000,8.062500
4004007,-20.000000,-40.000000,8.062500
4004008,-10.000000,-40.000000,8.062500
4004009,0.000000,-40.000000,8.062500
4004010,10.000000,-40.000000,8.062500
4004011,20.000000,-40.000000,8.062500
4004012,30.000000,-40.000000,8.062500
4004013,40.000000,-40.000000,8.062500
4004014,50.000000,-40.000000,8.062500
4004015,60.000000,-40.000000,8.062500
4004016,70.000000,-40.000000,8.062500
4004017,80.000000,-40.000000,8.062500
4005001,-80.000000,-30.000000,8.062500
4005002,-70.000000,-30.000000,8.062500
4005003,-60.000000,-30.000000,8.062500
4005004,-50.000000,-30.000000,8.062500
4005005,-40.000000,-30.000000,8.062500
4005006,-30.000000,-30.000000,8.062500
4005007,-20.000000,-30.000000,8.062500
4005008,-10.000000,-30.000000,8.062500
4005009,0.000000,-30.000000,8.062500
4005010,10.000000,-30.000000,8.062500
4005011,20.000000,-30.000000,8.062500
4005012,30.000000,-30.000000,8.062500
4005013,40.000000,-30.000000,8.062500
4005014,50.000000,-30.000000,8.062500
4005015,60.000000,-30.000000,8.062500
4005016,70.000000,-30.000000,8.062500
4005017,80.000000,-30.000000,8.062500
4006001,-80.000000,-20.000000,8.062500
4006002,-70.000000,-20.000000,8.062500
4006003,-60.000000,-20.000000,8.062500
4006004,-50.000000,-20.000000,8.062500
4006005,-40.000000,-20.000000,8.062500
4006006,-30.000000,-20.000000,8.062500
4006007,-20.000000,-20.000000,8.062500
4006008,-10.000000,-20.000000,8.062500
4006009,0.000000,-20.000000,8.062500
4006010,10.000000,-20.000000,8.062500
4006011,20.000000,-20.000000,8.062500
4006012,30.000000,-20.000000,8.062500
4006013,40.000000,-20.000000,8.062500
4006014,50.000000,-20.000000,8.062500
4006015,60.000000,-20.000000,8.062500
4006016,70.000000,-20.000000,8.062500
4006017,80.000000,-20.000000,8.062500
4007001,-80.000000,-10.000000,8.062500
4007002,-70.000000,-10.000000,8.062500
4007003,-60.000000,-10.000000,8.062500
4007004,-50.000000,-10.000000,8.062500
4007005,-40.000000,-10.000000,8.062500
4007006,-30.000000,-10.000000,8.062500
4007007,-20.000000,-10.000000,8.062500
4007011,20.000000,-10.000000,8.062500
4007012,30.000000,-10.000000,8.062500
4007013,40.000000,-10.000000,8.062500
4007014,50.000000,-10.000000,8.062500
4007015,60.000000,-10.000000,8.062500
4007016,70.000000,-10.000000,8.062500
4007017,80.000000,-10.000000,8.062500
4008001,-80.000000,0.000000,8.062500
4008002,-70.000000,0.000000,8.062500
4008003,-60.000000,0.000000,8.062500
4008004,-50.000000,0.000000,8.062500
4008005,-40.000000,0.000000,8.062500
4008006,-30.000000,0.000000,8.062500
4008007,-20.000000,0.000000,8.062500
4008011,20.000000,0.000000,8.062500
4008012,30.000000,0.000000,8.062500
4008013,40.000000,0.000000,8.062500
4008014,50.000000,0.000000,8.062500
4008015,60.000000,0.000000,8.062500
4008016,70.000000,0.000000,8.062500
4008017,80.000000,0.000000,8.062500
4009001,-80.000000,10.000000,8.062500
4009002,-70.000000,10.000000,8.062500
4009003,-60.000000,10.000000,8.062500
4009004,-50.000000,10.000000,8.062500
4009005,-40.000000,10.000000,8.062500
4009006,-30.000000,10.000000,8.062500
4009007,-20.000000,10.000000,8.062500
4009011,20.000000,10.000000,8.062500
4009012,30.000000,10.000000,8.062500
4009013,40.000000,10.000000,8.062500
4009014,50.000000,10.000000,8.062500
4009015,60.000000,10.000000,8.062500
4009016,70.000000,10.000000,8.062500
4009017,80.000000,10.000000,8.062500
4010001,-80.000000,20.000000,8.062500
4010002,-70.000000,20.000000,8.062500
4010003,-60.000000,20.000000,8.062500
4010004,-50.000000,20.000000,8.062500
4010005,-40.000000,20.000000,8.062500
4010006,-30.000000,20.000000,8.062500
4010007,-20.000000,20.000000,8.062500
4010008,-10.000000,20.000000,8.062500
4010009,0.000000,20.000000,8.062500
4010010,10.000000,20.000000,8.062500
4010011,20.000000,20.000000,8.062500
4010012,30.000000,20.000000,8.062500
4010013,40.000000,20.000000,8.062500
4010014,50.000000,20.000000,8.062500
4010015,60.000000,20.000000,8.062500
4010016,70.000000,20.000000,8.062500
4010017,80.000000,20.000000,8.062500
4011001,-80.000000,30.000000,8.062500
4011002,-70.000000,30.000000,8.062500
4011003,-60.000000,30.000000,8.062500
4011004,-50.000000,30.000000,8.062500
4011005,-40.000000,30.000000,8.062500
4011006,-30.000000,30.000000,8.062500
4011007,-20.000000,30.000000,8.062500
4011008,-10.000000,30.000000,8.062500
4011009,0.000000,30.000000,8.062500
4011010,10.000000,30.000000,8.062500
4011011,20.000000,30.000000,8.062500
4011012,30.000000,30.000000,8.062500
4011013,40.000000,30.000000,8.062500
4011014,50.000000,30.000000,8.062500
4011015,60.000000,30.000000,8.062500
4011016,70.000000,30.000000,8.062500
4011017,80.000000,30.000000,8.062500
4012001,-80.000000,40.000000,8.062500
4012002,-70.000000,40.000000,8.062500
4012003,-60.000000,40.000000,8.062500
4012004,-50.000000,40.000000,8.062500
4012005,-40.000000,40.000000,8.062500
4012006,-30.000000,40.000000,8.062500
4012007,-20.000000,40.000000,8.062500
4012008,-10.000000,40.000000,8.062500
4012009,0.000000,40.000000,8.062500
4012010,10.000000,40.000000,8.062500
4012011,20.000000,40.000000,8.062500
4012012,30.000000,40.000000,8.062500
4012013,40.000000,40.000000,8.062500
4012014,50.000000,40.000000,8.062500
4012015,60.000000,40.000000,8.062500
4012016,70.000000,40.000000,8.062500
4012017,80.000000,40.000000,8.062500
4013001,-80.000000,50.000000,8.062500
4013002,-70.000000,50.000000,8.062500
4013003,-60.000000,50.000000,8.062500
4013004,-50.000000,50.000000,8.062500
4013005,-40.000000,50.000000,8.062500
4013006,-30.000000,50.000000,8.062500
4013007,-20.000000,50.000000,8.062500
4013008,-10.000000,50.000000,8.062500
4013009,0.000000,50.000000,8.062500
4013010,10.000000,50.000000,8.062500
4013011,20.000000,50.000000,8.062500
4013012,30.000000,50.000000,8.062500
4013013,40.000000,50.000000,8.062500
4013014,50.000000,50.000000,8.062500
4013015,60.000000,50.000000,8.062500
4013016,70.000000,50.000000,8.062500
4013017,80.000000,50.000000,8.062500
4014001,-80.000000,60.000000,8.062500
4014002,-70.000000,60.000000,8.062500
4014003,-60.000000,60.000000,8.062500
4014004,-50.000000,60.000000,8.062500
4014005,-40.000000,60.000000,8.062500
4014006,-30.000000,60.000000,8.062500
4014007,-20.000000,60.000000,8.062500
4014008,-10.000000,60.000000,8.062500
4014009,0.000000,60.000000,8.062500
4014010,10.000000,60.000000,8.062500
4014011,20.000000,60.000000,8.062500
4014012,30.000000,60.000000,8.062500
4014013,40.000000,60.000000,8.062500
4014014,50.000000,60.000000,8.062500
4014015,60.000000,60.000000,8.062500
4014016,70.000000,60.000000,8.062500
4014017,80.000000,60.000000,8.062500
4015001,-80.000000,70.000000,8.062500
4015002,-70.000000,70.000000,8.062500
4015003,-60.000000,70.000000,8.062500
4015004,-50.000000,70.000000,8.062500
4015005,-40.000000,70.000000,8.062500
4015006,-30.000000,70.000000,8.062500
4015007,-20.000000,70.000000,8.062500
4015008,-10.000000,70.000000,8.062500
4015009,0.000000,70.000000,8.062500
4015010,10.000000,70.000000,8.062500
4015011,20.000000,70.000000,8.062500
4015012,30.000000,70.000000,8.062500
4015013,40.000000,70.000000,8.062500
4015014,50.000000,70.000000,8.062500
4015015,60.000000,70.000000,8.062500
4015016,70.000000,70.000000,8.062500
4015017,80.000000,70.000000,8.062500
4016001,-80.000000,80.000000,8.062500
4016002,-70.000000,80.000000,8.062500
4016003,-60.000000,80.000000,8.062500
4016004,-50.000000,80.000000,8.062500
4016005,-40.000000,80.000000,8.062500
4016006,-30.000000,80.000000,8.062500
4016007,-20.000000,80.000000,8.062500
4016008,-10.000000,80.000000,8.062500
4016009,0.000000,80.000000,8.062500
4016010,10.000000,80.000000,8.062500
4016011,20.000000,80.000000,8.062500
4016012,30.000000,80.000000,8.062500
4016013,40.000000,80.000000,8.062500
4016014,50.000000,80.000000,8.062500
4016015,60.000000,80.000000,8.062500
4016016,70.000000,80.000000,8.062500
4016017,80.000000,80.000000,8.062500
5000001,-80.000000,-80.000000,10.750000
5000002,-70.000000,-80.000000,10.750000
5000003,-60.000000,-80.000000,10.750000
5000004,-50.000000,-80.000000,10.750000
5000005,-40.000000,-80.000000,10.750000
5000006,-30.000000,-80.000000,10.750000
5000007,-20.000000,-80.000000,10.750000
5000008,-10.000000,-80.000000,10.750000
5000009,0.000000,-80.000000,10.750000
5000010,10.000000,-80.000000,10.750000
5000011,20.000000,-80.000000,10.750000
5000012,30.000000,-80.000000,10.750000
5000013,40.000000,-80.000000,10.750000
5000014,50.000000,-80.000000,10.750000
5000015,60.000000,-80.000000,10.750000
5000016,70.000000,-80.000000,10.750000
5000017,80.000000,-80.000000,10.750000
5001001,-80.000000,-70.000000,10.750000
5001002,-70.000000,-70.000000,10.750000
5001003,-60.000000,-70.000000,10.750000
5001004,-50.000000,-70.000000,10.750000
5001005,-40.000000,-70.000000,10.750000
5001006,-30.000000,-70.000000,10.750000
5001007,-20.000000,-70.000000,10.750000
5001008,-10.000000,-70.000000,10.750000
5001009,0.000000,-70.000000,10.750000
5001010,10.000000,-70.000000,10.750000
5001011,20.000000,-70.000000,10.750000
5001012,30.000000,-70.000000,10.750000
5001013,40.000000,-70.000000,10.750000
5001014,50.000000,-70.000000,10.750000
5001015,60.000000,-70.000000,10.750000
5001016,70.000000,-70.000000,10.750000
5001017,80.000000,-70.000000,10.750000
5002001,-80.000000,-60.000000,10.750000
5002002,-70.000000,-60.000000,10.750000
5002003,-60.000000,-60.000000,10.750000
5002004,-50.000000,-60.000000,10.750000
5002005,-40.000000,-60.000000,10.750000
5002006,-30.000000,-60.000000,10.750000
5002007,-20.000000,-60.000000,10.750000
5002008,-10.000000,-60.000000,10.750000
5002009,0.000000,-60.000000,10.750000
5002010,10.000000,-60.000000,10.750000
5002011,20.000000,-60.000000,10.750000
5002012,30.000000,-60.000000,10.750000
5002013,40.000000,-60.000000,10.750000
5002014,50.000000,-60.000000,10.750000
5002015,60.000000,-60.000000,10.750000
5002016,70.000000,-60.000000,10.750000
5002017,80.000000,-60.000000,10.750000
5003001,-80.000000,-50.000000,10.750000
5003002,-70.000000,-50.000000,10.750000
5003003,-60.000000,-50.000000,10.750000
5003004,-50.000000,-50.000000,10.750000
5003005,-40.000000,-50.000000,10.750000
5003006,-30.000000,-50.000000,10.750000
5003007,-20.000000,-50.000000,10.750000
5003008,-10.000000,-50.000000,10.750000
5003009,0.000000,-50.000000,10.750000
5003010,10.000000,-50.000000,10.750000
5003011,20.000000,-50.000000,10.750000
5003012,30.000000,-50.000000,10.750000
5003013,40.000000,-50.000000,10.750000
5003014,50.000000,-50.000000,10.750000
5003015,60.000000,-50.000000,10.750000
5003016,70.000000,-50.000000,10.750000
5003017,80.000000,-50.000000,10.750000
5004001,-80.000000,-40.000000,10.750000
5004002,-70.000000,-40.000000,10.750000
5004003,-60.000000,-40.000000,10.750000
5004004,-50.000000,-40.000000,10.750000
5004005,-40.000000,-40.000000,10.750000
5004006,-30.000000,-40.000000,10.750000
5004007,-20.000000,-40.000000,10.750000
5004008,-10.000000,-40.000000,10.750000
5004009,0.000000,-40.000000,10.750000
5004010,10.000000,-40.000000,10.750000
5004011,20.000000,-40.000000,10.750000
5004012,30.000000,-40.000000,10.750000
5004013,40.000000,-40.000000,10.750000
5004014,50.000000,-40.000000,10.750000
5004015,60.000000,-40.000000,10.750000
5004016,70.000000,-40.000000,10.750000
5004017,80.000000,-40.000000,10.750000
5005001,-80.000000,-30.000000,10.750000
5005002,-70.000000,-30.000000,10.750000
5005003,-60.000000,-30.000000,10.750000
5005004,-50.000000,-30.000000,10.750000
5005005,-40.000000,-30.000000,10.750000
5005006,-30.000000,-30.000000,10.750000
5005007,-20.000000,-30.000000,10.750000
5005008,-10.000000,-30.000000,10.750000
5005009,0.000000,-30.000000,10.750000
5005010,10.000000,-30.000000,10.750000
5005011,20.000000,-30.000000,10.750000
5005012,30.000000,-30.000000,10.750000
5005013,40.000000,-30.000000,10.750000
5005014,50.000000,-30.000000,10.750000
5005015,60.000000,-30.000000,10.750000
5005016,70.000000,-30.000000,10.750000
5005017,80.000000,-30.000000,10.750000
5006001,-80.000000,-20.000000,10.750000
5006002,-70.000000,-20.000000,10.750000
5006003,-60.000000,-20.000000,10.750000
5006004,-50.000000,-20.000000,10.750000
5006005,-40.000000,-20.000000,10.750000
5006006,-30.000000,-20.000000,10.750000
5006007,-20.000000,-20.000000,10.750000
5006008,-10.000000,-20.000000,10.750000
5006009,0.000000,-20.000000,10.750000
5006010,10.000000,-20.000000,10.750000
5006011,20.000000,-20.000000,10.750000
5006012,30.000000,-20.000000,10.750000
5006013,40.000000,-20.000000,10.750000
5006014,50.000000,-20.000000,10.750000
5006015,60.000000,-20.000000,10.750000
5006016,70.000000,-20.000000,10.750000
5006017,80.000000,-20.000000,10.750000
5007001,-80.000000,-10.000000,10.750000
5007002,-70.000000,-10.000000,10.750000
5007003,-60.000000,-10.000000,10.750000
5007004,-50.000000,-10.000000,10.750000
5007005,-40.000000,-10.000000,10.750000
5007006,-30.000000,-10.000000,10.750000
5007007,-20.000000,-10.000000,10.750000
5007011,20.000000,-10.000000,10.750000
5007012,30.000000,-10.000000,10.750000
5007013,40.000000,-10.000000,10.750000
5007014,50.000000,-10.000000,10.750000
5007015,60.000000,-10.000000,10.750000
5007016,70.000000,-10.000000,10.750000
5007017,80.000000,-10.000000,10.750000
5008001,-80.000000,0.000000,10.750000
5008002,-70.000000,0.000000,10.750000
5008003,-60.000000,0.000000,10.750000
5008004,-50.000000,0.000000,10.750000
5008005,-40.000000,0.000000,10.750000
5008006,-30.000000,0.000000,10.750000
5008007,-20.000000,0.000000,10.750000
5008011,20.000000,0.000000,10.750000
5008012,30.000000,0.000000,10.750000
5008013,40.000000,0.000000,10.750000
5008014,50.000000,0.000000,10.750000
5008015,60.000000,0.000000,10.750000
5008016,70.000000,0.000000,10.750000
5008017,80.000000,0.000000,10.750000
5009001,-80.000000,10.000000,10.750000
5009002,-70.000000,10.000000,10.750000
5009003,-60.000000,10.000000,10.750000
5009004,-50.000000,10.000000,10.750000
5009005,-40.000000,10.000000,10.750000
5009006,-30.000000,10.000000,10.750000
5009007,-20.000000,10.000000,10.750000
5009011,20.000000,10.000000,10.750000
5009012,30.000000,10.000000,10.750000
5009013,40.000000,10.000000,10.750000
5009014,50.000000,10.000000,10.750000
5009015,60.000000,10.000000,10.750000
5009016,70.000000,10.000000,10.750000
5009017,80.000000,10.000000,10.750000
5010001,-80.000000,20.000000,10.750000
5010002,-70.000000,20.000000,10.750000
5010003,-60.000000,20.000000,10.750000
5010004,-50.000000,20.000000,10.750000
5010005,-40.000000,20.000000,10.750000
5010006,-30.000000,20.000000,10.750000
5010007,-20.000000,20.000000,10.750000
5010008,-10.000000,20.000000,10.750000
5010009,0.000000,20.000000,10.750000
5010010,10.000000,20.000000,10.750000
5010011,20.000000,20.000000,10.750000
5010012,30.000000,20.000000,10.750000
5010013,40.000000,20.000000,10.750000
5010014,50.000000,20.000000,10.750000
5010015,60.000000,20.000000,10.750000
5010016,70.000000,20.000000,10.750000
5010017,80.000000,20.000000,10.750000
5011001,-80.000000,30.000000,10.750000
5011002,-70.000000,30.000000,10.750000
5011003,-60.000000,30.000000,10.750000
5011004,-50.000000,30.000000,10.750000
5011005,-40.000000,30.000000,10.750000
5011006,-30.000000,30.000000,10.750000
5011007,-20.000000,30.000000,10.750000
5011008,-10.000000,30.000000,10.750000
5011009,0.000000,30.000000,10.750000
5011010,10.000000,30.000000,10.750000
5011011,20.000000,30.000000,10.750000
5011012,30.000000,30.000000,10.750000
5011013,40.000000,30.000000,10.750000
5011014,50.000000,30.000000,10.750000
5011015,60.000000,30.000000,10.750000
5011016,70.000000,30.000000,10.750000
5011017,80.000000,30.000000,10.750000
5012001,-80.000000,40.000000,10.750000
5012002,-70.000000,40.000000,10.750000
5012003,-60.000000,40.000000,10.750000
5012004,-50.000000,40.000000,10.750000
5012005,-40.000000,40.000000,10.750000
5012006,-30.000000,40.000000,10.750000
5012007,-20.000000,40.000000,10.750000
5012008,-10.000000,40.000000,10.750000
5012009,0.000000,40.000000,10.750000
5012010,10.000000,40.000000,10.750000
5012011,20.000000,40.000000,10.750000
5012012,30.000000,40.000000,10.750000
5012013,40.000000,40.000000,10.750000
5012014,50.000000,40.000000,10.750000
5012015,60.000000,40.000000,10.750000
5012016,70.000000,40.000000,10.750000
5012017,80.000000,40.000000,10.750000
5013001,-80.000000,50.000000,10.750000
5013002,-70.000000,50.000000,10.750000
5013003,-60.000000,50.000000,10.750000
5013004,-50.000000,50.000000,10.750000
5013005,-40.000000,50.000000,10.750000
5013006,-30.000000,50.000000,10.750000
5013007,-20.000000,50.000000,10.750000
5013008,-10.000000,50.000000,10.750000
5013009,0.000000,50.000000,10.750000
5013010,10.000000,50.000000,10.750000
5013011,20.000000,50.000000,10.750000
5013012,30.000000,50.000000,10.750000
5013013,40.000000,50.000000,10.750000
5013014,50.000000,50.000000,10.750000
5013015,60.000000,50.000000,10.750000
5013016,70.000000,50.000000,10.750000
5013017,80.000000,50.000000,10.750000
5014001,-80.000000,60.000000,10.750000
5014002,-70.000000,60.000000,10.750000
5014003,-60.000000,60.000000,10.750000
5014004,-50.000000,60.000000,10.750000
5014005,-40.000000,60.000000,10.750000
5014006,-30.000000,60.000000,10.750000
5014007,-20.000000,60.000000,10.750000
5014008,-10.000000,60.000000,10.750000
5014009,0.000000,60.000000,10.750000
5014010,10.000000,60.000000,10.750000
5014011,20.000000,60.000000,10.750000
5014012,30.000000,60.000000,10.750000
5014013,40.000000,60.000000,10.750000
5014014,50.000000,60.000000,10.750000
5014015,60.000000,60.000000,10.750000
5014016,70.000000,60.000000,10.750000
5014017,80.000000,60.000000,10.750000
5015001,-80.000000,70.000000,10.750000
5015002,-70.000000,70.000000,10.750000
5015003,-60.000000,70.000000,10.750000
5015004,-50.000000,70.000000,10.750000
5015005,-40.000000,70.000000,10.750000
5015006,-30.000000,70.000000,10.750000
5015007,-20.000000,70.000000,10.750000
5015008,-10.000000,70.000000,10.750000
5015009,0.000000,70.000000,10.750000
5015010,10.000000,70.000000,10.750000
5015011,20.000000,70.000000,10.750000
5015012,30.000000,70.000000,10.750000
5015013,40.000000,70.000000,10.750000
5015014,50.000000,70.000000,10.750000
5015015,60.000000,70.000000,10.750000
5015016,70.000000,70.000000,10.750000
5015017,80.000000,70.000000,10.750000
5016001,-80.000000,80.000000,10.750000
5016002,-70.000000,80.000000,10.750000
5016003,-60.000000,80.000000,10.750000
5016004,-50.000000,80.000000,10.750000
5016005,-40.000000,80.000000,10.750000
5016006,-30.000000,80.000000,10.750000
5016007,-20.000000,80.000000,10.750000
5016008,-10.000000,80.000000,10.750000
5016009,0.000000,80.000000,10.750000
5016010,10.000000,80.000000,10.750000
5016011,20.000000,80.000000,10.750000
5016012,30.000000,80.000000,10.750000
5016013,40.000000,80.000000,10.750000
5016014,50.000000,80.000000,10.750000
5016015,60.000000,80.000000,10.750000
5016016,70.000000,80.000000,10.750000
5016017,80.000000,80.000000,10.750000
6000001,-80.000000,-80.000000,10.750000
6000002,-70.000000,-80.000000,10.750000
6000003,-60.000000,-80.000000,10.750000
6000004,-50.000000,-80.000000,10.750000
6000005,-40.000000,-80.000000,10.750000
6000006,-30.000000,-80.000000,10.750000
6000007,-20.000000,-80.000000,10.750000
6000008,-10.000000,-80.000000,10.750000
6000009,0.000000,-80.000000,10.750000
6000010,10.000000,-80.000000,10.750000
6000011,20.000000,-80.000000,10.750000
6000012,30.000000,-80.000000,10.750000
6000013,40.000000,-80.000000,10.750000
6000014,50.000000,-80.000000,10.750000
6000015,60.000000,-80.000000,10.750000
6000016,70.000000,-80.000000,10.750000
6000017,80.000000,-80.000000,10.750000
6001001,-80.000000,-70.000000,10.750000
6001002,-70.000000,-70.000000,10.750000
6001003,-60.000000,-70.000000,10.750000
6001004,-50.000000,-70.000000,10.750000
6001005,-40.000000,-70.000000,10.750000
6001006,-30.000000,-70.000000,10.750000
6001007,-20.000000,-70.000000,10.750000
6001008,-10.000000,-70.000000,10.750000
6001009,0.000000,-70.000000,10.750000
6001010,10.000000,-70.000000,10.750000
6001011,20.000000,-70.000000,10.750000
6001012,30.000000,-70.000000,10.750000
6001013,40.000000,-70.000000,10.750000
6001014,50.000000,-70.000000,10.750000
6001015,60.000000,-70.000000,10.750000
6001016,70.000000,-70.000000,10.750000
6001017,80.000000,-70.000000,10.750000
6002001,-80.000000,-60.000000,10.750000
6002002,-70.000000,-60.000000,10.750000
6002003,-60.000000,-60.000000,10.750000
6002004,-50.000000,-60.000000,10.750000
6002005,-40.000000,-60.000000,10.750000
6002006,-30.000000,-60.000000,10.750000
6002007,-20.000000,-60.000000,10.750000
6002008,-10.000000,-60.000000,10.750000
6002009,0.000000,-60.000000,10.750000
6002010,10.000000,-60.000000,10.750000
6002011,20.000000,-60.000000,10.750000
6002012,30.000000,-60.000000,10.750000
6002013,40.000000,-60.000000,10.750000
6002014,50.000000,-60.000000,10.750000
6002015,60.000000,-60.000000,10.750000
6002016,70.000000,-60.000000,10.750000
6002017,80.000000,-60.000000,10.750000
6003001,-80.000000,-50.000000,10.750000
6003002,-70.000000,-50.000000,10.750000
6003003,-60.000000,-50.000000,10.750000
6003004,-50.000000,-50.000000,10.750000
6003005,-40.000000,-50.000000,10.750000
6003006,-30.000000,-50.000000,10.750000
6003007,-20.000000,-50.000000,10.750000
6003008,-10.000000,-50.000000,10.750000
6003009,0.000000,-50.000000,10.750000
6003010,10.000000,-50.000000,10.750000
6003011,20.000000,-50.000000,10.750000
6003012,30.000000,-50.000000,10.750000
6003013,40.000000,-50.000000,10.750000
6003014,50.000000,-50.000000,10.750000
6003015,60.000000,-50.000000,10.750000
6003016,70.000000,-50.000000,10.750000
6003017,80.000000,-50.000000,10.750000
6004001,-80.000000,-40.000000,10.750000
6004002,-70.000000,-40.000000,10.750000
6004003,-60.000000,-40.000000,10.750000
6004004,-50.000000,-40.000000,10.750000
6004005,-40.000000,-40.000000,10.750000
6004006,-30.000000,-40.000000,10.750000
6004012,30.000000,-40.000000,10.750000
6004013,40.000000,-40.000000,10.750000
6004014,50.000000,-40.000000,10.750000
6004015,60.000000,-40.000000,10.750000
6004016,70.000000,-40.000000,10.750000
6004017,80.000000,-40.000000,10.750000
6005001,-80.000000,-30.000000,10.750000
6005002,-70.000000,-30.000000,10.750000
6005003,-60.000000,-30.000000,10.750000
6005004,-50.000000,-30.000000,10.750000
6005005,-40.000000,-30.000000,10.750000
6005013,40.000000,-30.000000,10.750000
6005014,50.000000,-30.000000,10.750000
6005015,60.000000,-30.000000,10.750000
6005016,70.000000,-30.000000,10.750000
6005017,80.000000,-30.000000,10.750000
6006001,-80.000000,-20.000000,10.750000
6006002,-70.000000,-20.000000,10.750000
6006003,-60.000000,-20.000000,10.750000
6006004,-50.000000,-20.000000,10.750000
6006014,50.000000,-20.000000,10.750000
6006015,60.000000,-20.000000,10.750000
6006016,70.000000,-20.000000,10.750000
6006017,80.000000,-20.000000,10.750000
6007001,-80.000000,-10.000000,10.750000
6007002,-70.000000,-10.000000,10.750000
6007003,-60.000000,-10.000000,10.750000
6007004,-50.000000,-10.000000,10.750000
6007014,50.000000,-10.000000,10.750000
6007015,60.000000,-10.000000,10.750000
6007016,70.000000,-10.000000,10.750000
6007017,80.000000,-10.000000,10.750000
6008001,-80.000000,0.000000,10.750000
6008002,-70.000000,0.000000,10.750000
6008003,-60.000000,0.000000,10.750000
6008004,-50.000000,0.000000,10.750000
6008014,50.000000,0.000000,10.750000
6008015,60.000000,0.000000,10.750000
6008016,70.000000,0.000000,10.750000
6008017,80.000000,0.000000,10.750000
6009001,-80.000000,10.000000,10.750000
6009002,-70.000000,10.000000,10.750000
6009003,-60.000000,10.000000,10.750000
6009004,-50.000000,10.000000,10.750000
6009014,50.000000,10.000000,10.750000
6009015,60.000000,10.000000,10.750000
6009016,70.000000,10.000000,10.750000
6009017,80.000000,10.000000,10.750000
6010001,-80.000000,20.000000,10.750000
6010002,-70.000000,20.000000,10.750000
6010003,-60.000000,20.000000,10.750000
6010004,-50.000000,20.000000,10.750000
6010014,50.000000,20.000000,10.750000
6010015,60.000000,20.000000,10.750000
6010016,70.000000,20.000000,10.750000
6010017,80.000000,20.000000,10.750000
6011001,-80.000000,30.000000,10.750000
6011002,-70.000000,30.000000,10.750000
6011003,-60.000000,30.000000,10.750000
6011004,-50.000000,30.000000,10.750000
6011005,-40.000000,30.000000,10.750000
6011013,40.000000,30.000000,10.750000
6011014,50.000000,30.000000,10.750000
6011015,60.000000,30.000000,10.750000
6011016,70.000000,30.000000,10.750000
6011017,80.000000,30.000000,10.750000
6012001,-80.000000,40.000000,10.750000
6012002,-70.000000,40.000000,10.750000
6012003,-60.000000,40.000000,10.750000
6012004,-50.000000,40.000000,10.750000
6012005,-40.000000,40.000000,10.750000
6012006,-30.000000,40.000000,10.750000
6012012,30.000000,40.000000,10.750000
6012013,40.000000,40.000000,10.750000
6012014,50.000000,40.000000,10.750000
6012015,60.000000,40.000000,10.750000
6012016,70.000000,40.000000,10.750000
6012017,80.000000,40.000000,10.750000
6013001,-80.000000,50.000000,10.750000
6013002,-70.000000,50.000000,10.750000
6013003,-60.000000,50.000000,10.750000
6013004,-50.000000,50.000000,10.750000
6013005,-40.000000,50.000000,10.750000
6013006,-30.000000,50.000000,10.750000
6013007,-20.000000,50.000000,10.750000
6013008,-10.000000,50.000000,10.750000
6013009,0.000000,50.000000,10.750000
6013010,10.000000,50.000000,10.750000
6013011,20.000000,50.000000,10.750000
6013012,30.000000,50.000000,10.750000
6013013,40.000000,50.000000,10.750000
6013014,50.000000,50.000000,10.750000
6013015,60.000000,50.000000,10.750000
6013016,70.000000,50.000000,10.750000
6013017,80.000000,50.000000,10.750000
6014001,-80.000000,60.000000,10.750000
6014002,-70.000000,60.000000,10.750000
6014003,-60.000000,60.000000,10.750000
6014004,-50.000000,60.000000,10.750000
6014005,-40.000000,60.000000,10.750000
6014006,-30.000000,60.000000,10.750000
6014007,-20.000000,60.000000,10.750000
6014008,-10.000000,60.000000,10.750000
6014009,0.000000,60.000000,10.750000
6014010,10.000000,60.000000,10.750000
6014011,20.000000,60.000000,10.750000
6014012,30.000000,60.000000,10.750000
6014013,40.000000,60.000000,10.750000
6014014,50.000000,60.000000,10.750000
6014015,60.000000,60.000000,10.750000
6014016,70.000000,60.000000,10.750000
6014017,80.000000,60.000000,10.750000
6015001,-80.000000,70.000000,10.750000
6015002,-70.000000,70.000000,10.750000
6015003,-60.000000,70.000000,10.750000
6015004,-50.000000,70.000000,10.750000
6015005,-40.000000,70.000000,10.750000
6015006,-30.000000,70.000000,10.750000
6015007,-20.000000,70.000000,10.750000
6015008,-10.000000,70.000000,10.750000
6015009,0.000000,70.000000,10.750000
6015010,10.000000,70.000000,10.750000
6015011,20.000000,70.000000,10.750000
6015012,30.000000,70.000000,10.750000
6015013,40.000000,70.000000,10.750000
6015014,50.000000,70.000000,10.750000
6015015,60.000000,70.000000,10.750000
6015016,70.000000,70.000000,10.750000
6015017,80.000000,70.000000,10.750000
6016001,-80.000000,80.000000,10.750000
6016002,-70.000000,80.000000,10.750000
6016003,-60.000000,80.000000,10.750000
6016004,-50.000000,80.000000,10.750000
6016005,-40.000000,80.000000,10.750000
6016006,-30.000000,80.000000,10.750000
6016007,-20.000000,80.000000,10.750000
6016008,-10.000000,80.000000,10.750000
6016009,0.000000,80.000000,10.750000
6016010,10.000000,80.000000,10.750000
6016011,20.000000,80.000000,10.750000
6016012,30.000000,80.000000,10.750000
6016013,40.000000,80.000000,10.750000
6016014,50.000000,80.000000,10.750000
6016015,60.000000,80.000000,10.750000
6016016,70.000000,80.000000,10.750000
6016017,80.000000,80.000000,10.750000
7000001,-80.000000,-80.000000,12.750000
7000002,-70.000000,-80.000000,12.750000
7000003,-60.000000,-80.000000,12.750000
7000004,-50.000000,-80.000000,12.750000
7000005,-40.000000,-80.000000,12.750000
7000006,-30.000000,-80.000000,12.750000
7000007,-20.000000,-80.000000,12.750000
7000008,-10.000000,-80.000000,12.750000
7000009,0.000000,-80.000000,12.750000
7000010,10.000000,-80.000000,12.750000
7000011,20.000000,-80.000000,12.750000
7000012,30.000000,-80.000000,12.750000
7000013,40.000000,-80.000000,12.750000
7000014,50.000000,-80.000000,12.750000
7000015,60.000000,-80.000000,12.750000
7000016,70.000000,-80.000000,12.750000
7000017,80.000000,-80.000000,12.750000
7001001,-80.000000,-70.000000,12.750000
7001002,-70.000000,-70.000000,12.750000
7001003,-60.000000,-70.000000,12.750000
7001004,-50.000000,-70.000000,12.750000
7001005,-40.000000,-70.000000,12.750000
7001006,-30.000000,-70.000000,12.750000
7001007,-20.000000,-70.000000,12.750000
7001008,-10.000000,-70.000000,12.750000
7001009,0.000000,-70.000000,12.750000
7001010,10.000000,-70.000000,12.750000
7001011,20.000000,-70.000000,12.750000
7001012,30.000000,-70.000000,12.750000
7001013,40.000000,-70.000000,12.750000
7001014,50.000000,-70.000000,12.750000
7001015,60.000000,-70.000000,12.750000
7001016,70.000000,-70.000000,12.750000
7001017,80.000000,-70.000000,12.750000
7002001,-80.000000,-60.000000,12.750000
7002002,-70.000000,-60.000000,12.750000
7002003,-60.000000,-60.000000,12.750000
7002004,-50.000000,-60.000000,12.750000
7002005,-40.000000,-60.000000,12.750000
7002006,-30.000000,-60.000000,12.750000
7002007,-20.000000,-60.000000,12.750000
7002008,-10.000000,-60.000000,12.750000
7002009,0.000000,-60.000000,12.750000
7002010,10.000000,-60.000000,12.750000
7002011,20.000000,-60.000000,12.750000
7002012,30.000000,-60.000000,12.750000
7002013,40.000000,-60.000000,12.750000
7002014,50.000000,-60.000000,12.750000
7002015,60.000000,-60.000000,12.750000
7002016,70.000000,-60.000000,12.750000
7002017,80.000000,-60.000000,12.750000
7003001,-80.000000,-50.000000,12.750000
7003002,-70.000000,-50.000000,12.750000
7003003,-60.000000,-50.000000,12.750000
7003004,-50.000000,-50.000000,12.750000
7003005,-40.000000,-50.000000,12.750000
7003006,-30.000000,-50.000000,12.750000
7003007,-20.000000,-50.000000,12.750000
7003008,-10.000000,-50.000000,12.750000
7003009,0.000000,-50.000000,12.750000
7003010,10.000000,-50.000000,12.750000
7003011,20.000000,-50.000000,12.750000
7003012,30.000000,-50.000000,12.750000
7003013,40.000000,-50.000000,12.750000
7003014,50.000000,-50.000000,12.750000
7003015,60.000000,-50.000000,12.750000
7003016,70.000000,-50.000000,12.750000
7003017,80.000000,-50.000000,12.750000
7004001,-80.000000,-40.000000,12.750000
7004002,-70.000000,-40.000000,12.750000
7004003,-60.000000,-40.000000,12.750000
7004004,-50.000000,-40.000000,12.750000
7004005,-40.000000,-40.000000,12.750000
7004006,-30.000000,-40.000000,12.750000
7004012,30.000000,-40.000000,12.750000
7004013,40.000000,-40.000000,12.750000
7004014,50.000000,-40.000000,12.750000
7004015,60.000000,-40.000000,12.750000
7004016,70.000000,-40.000000,12.750000
7004017,80.000000,-40.000000,12.750000
7005001,-80.000000,-30.000000,12.750000
7005002,-70.000000,-30.000000,12.750000
7005003,-60.000000,-30.000000,12.750000
7005004,-50.000000,-30.000000,12.750000
7005005,-40.000000,-30.000000,12.750000
7005013,40.000000,-30.000000,12.750000
7005014,50.000000,-30.000000,12.750000
7005015,60.000000,-30.000000,12.750000
7005016,70.000000,-30.000000,12.750000
7005017,80.000000,-30.000000,12.750000
7006001,-80.000000,-20.000000,12.750000
7006002,-70.000000,-20.000000,12.750000
7006003,-60.000000,-20.000000,12.750000
7006004,-50.000000,-20.000000,12.750000
7006014,50.000000,-20.000000,12.750000
7006015,60.000000,-20.000000,12.750000
7006016,70.000000,-20.000000,12.750000
7006017,80.000000,-20.000000,12.750000
7007001,-80.000000,-10.000000,12.750000
7007002,-70.000000,-10.000000,12.750000
7007003,-60.000000,-10.000000,12.750000
7007004,-50.000000,-10.000000,12.750000
7007014,50.000000,-10.000000,12.750000
7007015,60.000000,-10.000000,12.750000
7007016,70.000000,-10.000000,12.750000
7007017,80.000000,-10.000000,12.750000
7008001,-80.000000,0.000000,12.750000
7008002,-70.000000,0.000000,12.750000
7008003,-60.000000,0.000000,12.750000
7008004,-50.000000,0.000000,12.750000
7008014,50.000000,0.000000,12.750000
7008015,60.000000,0.000000,12.750000
7008016,70.000000,0.000000,12.750000
7008017,80.000000,0.000000,12.750000
7009001,-80.000000,10.000000,12.750000
7009002,-70.000000,10.000000,12.750000
7009003,-60.000000,10.000000,12.750000
7009004,-50.000000,10.000000,12.750000
7009014,50.000000,10.000000,12.750000
7009015,60.000000,10.000000,12.750000
7009016,70.000000,10.000000,12.750000
7009017,80.000000,10.000000,12.750000
7010001,-80.000000,20.000000,12.750000
7010002,-70.000000,20.000000,12.750000
7010003,-60.000000,20.000000,12.750000
7010004,-50.000000,20.000000,12.750000
7010014,50.000000,20.000000,12.750000
7010015,60.000000,20.000000,12.750000
7010016,70.000000,20.000000,12.750000
7010017,80.000000,20.000000,12.750000
7011001,-80.000000,30.000000,12.750000
7011002,-70.000000,30.000000,12.750000
7011003,-60.000000,30.000000,12.750000
7011004,-50.000000,30.000000,12.750000
7011005,-40.000000,30.000000,12.750000
7011013,40.000000,30.000000,12.750000
7011014,50.000000,30.000000,12.750000
7011015,60.000000,30.000000,12.750000
7011016,70.000000,30.000000,12.750000
7011017,80.000000,30.000000,12.750000
7012001,-80.000000,40.000000,12.750000
7012002,-70.000000,40.000000,12.750000
7012003,-60.000000,40.000000,12.750000
7012004,-50.000000,40.000000,12.750000
7012005,-40.000000,40.000000,12.750000
7012006,-30.000000,40.000000,12.750000
7012012,30.000000,40.000000,12.750000
7012013,40.000000,40.000000,12.750000
7012014,50.000000,40.000000,12.750000
7012015,60.000000,40.000000,12.750000
7012016,70.000000,40.000000,12.750000
7012017,80.000000,40.000000,12.750000
7013001,-80.000000,50.000000,12.750000
7013002,-70.000000,50.000000,12.750000
7013003,-60.000000,50.000000,12.750000
7013004,-50.000000,50.000000,12.750000
7013005,-40.000000,50.000000,12.750000
7013006,-30.000000,50.000000,12.750000
7013007,-20.000000,50.000000,12.750000
7013008,-10.000000,50.000000,12.750000
7013009,0.000000,50.000000,12.750000
7013010,10.000000,50.000000,12.750000
7013011,20.000000,50.000000,12.750000
7013012,30.000000,50.000000,12.750000
7013013,40.000000,50.000000,12.750000
7013014,50.000000,50.000000,12.750000
7013015,60.000000,50.000000,12.750000
7013016,70.000000,50.000000,12.750000
7013017,80.000000,50.000000,12.750000
7014001,-80.000000,60.000000,12.750000
7014002,-70.000000,60.000000,12.750000
7014003,-60.000000,60.000000,12.750000
7014004,-50.000000,60.000000,12.750000
7014005,-40.000000,60.000000,12.750000
7014006,-30.000000,60.000000,12.750000
7014007,-20.000000,60.000000,12.750000
7014008,-10.000000,60.000000,12.750000
7014009,0.000000,60.000000,12.750000
7014010,10.000000,60.000000,12.750000
7014011,20.000000,60.000000,12.750000
7014012,30.000000,60.000000,12.750000
7014013,40.000000,60.000000,12.750000
7014014,50.000000,60.000000,12.750000
7014015,60.000000,60.000000,12.750000
7014016,70.000000,60.000000,12.750000
7014017,80.000000,60.000000,12.750000
7015001,-80.000000,70.000000,12.750000
7015002,-70.000000,70.000000,12.750000
7015003,-60.000000,70.000000,12.750000
7015004,-50.000000,70.000000,12.750000
7015005,-40.000000,70.000000,12.750000
7015006,-30.000000,70.000000,12.750000
7015007,-20.000000,70.000000,12.750000
7015008,-10.000000,70.000000,12.750000
7015009,0.000000,70.000000,12.750000
7015010,10.000000,70.000000,12.750000
7015011,20.000000,70.000000,12.750000
7015012,30.000000,70.000000,12.750000
7015013,40.000000,70.000000,12.750000
7015014,50.000000,70.000000,12.750000
7015015,60.000000,70.000000,12.750000
7015016,70.000000,70.000000,12.750000
7015017,80.000000,70.000000,12.750000
7016001,-80.000000,80.000000,12.750000
7016002,-70.000000,80.000000,12.750000
7016003,-60.000000,80.000000,12.750000
7016004,-50.000000,80.000000,12.750000
7016005,-40.000000,80.000000,12.750000
7016006,-30.000000,80.000000,12.750000
7016007,-20.000000,80.000000,12.750000
7016008,-10.000000,80.000000,12.750000
7016009,0.000000,80.000000,12.750000
7016010,10.000000,80.000000,12.750000
7016011,20.000000,80.000000,12.750000
7016012,30.000000,80.000000,12.750000
7016013,40.000000,80.000000,12.750000
7016014,50.000000,80.000000,12.750000
7016015,60.000000,80.000000,12.750000
7016016,70.000000,80.000000,12.750000
7016017,80.000000,80.000000,12.750000
8000001,-80.000000,-80.000000,14.750000
8000002,-70.000000,-80.000000,14.750000
8000003,-60.000000,-80.000000,14.750000
8000004,-50.000000,-80.000000,14.750000
8000005,-40.000000,-80.000000,14.750000
8000006,-30.000000,-80.000000,14.750000
8000007,-20.000000,-80.000000,14.750000
8000008,-10.000000,-80.000000,14.750000
8000009,0.000000,-80.000000,14.750000
8000010,10.000000,-80.000000,14.750000
8000011,20.000000,-80.000000,14.750000
8000012,30.000000,-80.000000,14.750000
8000013,40.000000,-80.000000,14.750000
8000014,50.000000,-80.000000,14.750000
8000015,60.000000,-80.000000,14.750000
8000016,70.000000,-80.000000,14.750000
8000017,80.000000,-80.000000,14.750000
8001001,-80.000000,-70.000000,14.750000
8001002,-70.000000,-70.000000,14.750000
8001003,-60.000000,-70.000000,14.750000
8001004,-50.000000,-70.000000,14.750000
8001005,-40.000000,-70.000000,14.750000
8001006,-30.000000,-70.000000,14.750000
8001007,-20.000000,-70.000000,14.750000
8001008,-10.000000,-70.000000,14.750000
8001009,0.000000,-70.000000,14.750000
8001010,10.000000,-70.000000,14.750000
8001011,20.000000,-70.000000,14.750000
8001012,30.000000,-70.000000,14.750000
8001013,40.000000,-70.000000,14.750000
8001014,50.000000,-70.000000,14.750000
8001015,60.000000,-70.000000,14.750000
8001016,70.000000,-70.000000,14.750000
8001017,80.000000,-70.000000,14.750000
8002001,-80.000000,-60.000000,14.750000
8002002,-70.000000,-60.000000,14.750000
8002003,-60.000000,-60.000000,14.750000
8002004,-50.000000,-60.000000,14.750000
8002005,-40.000000,-60.000000,14.750000
8002006,-30.000000,-60.000000,14.750000
8002007,-20.000000,-60.000000,14.750000
8002008,-10.000000,-60.000000,14.750000
8002009,0.000000,-60.000000,14.750000
8002010,10.000000,-60.000000,14.750000
8002011,20.000000,-60.000000,14.750000
8002012,30.000000,-60.000000,14.750000
8002013,40.000000,-60.000000,14.750000
8002014,50.000000,-60.000000,14.750000
8002015,60.000000,-60.000000,14.750000
8002016,70.000000,-60.000000,14.750000
8002017,80.000000,-60.000000,14.750000
8003001,-80.000000,-50.000000,14.750000
8003002,-70.000000,-50.000000,14.750000
8003003,-60.000000,-50.000000,14.750000
8003004,-50.000000,-50.000000,14.750000
8003005,-40.000000,-50.000000,14.750000
8003006,-30.000000,-50.000000,14.750000
8003007,-20.000000,-50.000000,14.750000
8003008,-10.000000,-50.000000,14.750000
8003009,0.000000,-50.000000,14.750000
8003010,10.000000,-50.000000,14.750000
8003011,20.000000,-50.000000,14.750000
8003012,30.000000,-50.000000,14.750000
8003013,40.000000,-50.000000,14.750000
8003014,50.000000,-50.000000,14.750000
8003015,60.000000,-50.000000,14.750000
8003016,70.000000,-50.000000,14.750000
8003017,80.000000,-50.000000,14.750000
8004001,-80.000000,-40.000000,14.750000
8004002,-70.000000,-40.000000,14.750000
8004003,-60.000000,-40.000000,14.750000
8004004,-50.000000,-40.000000,14.750000
8004005,-40.000000,-40.000000,14.750000
8004006,-30.000000,-40.000000,14.750000
8004012,30.000000,-40.000000,14.750000
8004013,40.000000,-40.000000,14.750000
8004014,50.000000,-40.000000,14.750000
8004015,60.000000,-40.000000,14.750000
8004016,70.000000,-40.000000,14.750000
8004017,80.000000,-40.000000,14.750000
8005001,-80.000000,-30.000000,14.750000
8005002,-70.000000,-30.000000,14.750000
8005003,-60.000000,-30.000000,14.750000
8005004,-50.000000,-30.000000,14.750000
8005005,-40.000000,-30.000000,14.750000
8005013,40.000000,-30.000000,14.750000
8005014,50.000000,-30.000000,14.750000
8005015,60.000000,-30.000000,14.750000
8005016,70.000000,-30.000000,14.750000
8005017,80.000000,-30.000000,14.750000
8006001,-80.000000,-20.000000,14.750000
8006002,-70.000000,-20.000000,14.750000
8006003,-60.000000,-20.000000,14.750000
8006004,-50.000000,-20.000000,14.750000
8006014,50.000000,-20.000000,14.750000
8006015,60.000000,-20.000000,14.750000
8006016,70.000000,-20.000000,14.750000
8006017,80.000000,-20.000000,14.750000
8007001,-80.000000,-10.000000,14.750000
8007002,-70.000000,-10.000000,14.750000
8007003,-60.000000,-10.000000,14.750000
8007004,-50.000000,-10.000000,14.750000
8007014,50.000000,-10.000000,14.750000
8007015,60.000000,-10.000000,14.750000
8007016,70.000000,-10.000000,14.750000
8007017,80.000000,-10.000000,14.750000
8008001,-80.000000,0.000000,14.750000
8008002,-70.000000,0.000000,14.750000
8008003,-60.000000,0.000000,14.750000
8008004,-50.000000,0.000000,14.750000
8008014,50.000000,0.000000,14.750000
8008015,60.000000,0.000000,14.750000
8008016,70.000000,0.000000,14.750000
8008017,80.000000,0.000000,14.750000
8009001,-80.000000,10.000000,14.750000
8009002,-70.000000,10.000000,14.750000
8009003,-60.000000,10.000000,14.750000
8009004,-50.000000,10.000000,14.750000
8009014,50.000000,10.000000,14.750000
8009015,60.000000,10.000000,14.750000
8009016,70.000000,10.000000,14.750000
8009017,80.000000,10.000000,14.750000
8010001,-80.000000,20.000000,14.750000
8010002,-70.000000,20.000000,14.750000
8010003,-60.000000,20.000000,14.750000
8010004,-50.000000,20.000000,14.750000
8010014,50.000000,20.000000,14.750000
8010015,60.000000,20.000000,14.750000
8010016,70.000000,20.000000,14.750000
8010017,80.000000,20.000000,14.750000
8011001,-80.000000,30.000000,14.750000
8011002,-70.000000,30.000000,14.750000
8011003,-60.000000,30.000000,14.750000
8011004,-50.000000,30.000000,14.750000
8011005,-40.000000,30.000000,14.750000
8011013,40.000000,30.000000,14.750000
8011014,50.000000,30.000000,14.750000
8011015,60.000000,30.000000,14.750000
8011016,70.000000,30.000000,14.750000
8011017,80.000000,30.000000,14.750000
8012001,-80.000000,40.000000,14.750000
8012002,-70.000000,40.000000,14.750000
8012003,-60.000000,40.000000,14.750000
8012004,-50.000000,40.000000,14.750000
8012005,-40.000000,40.000000,14.750000
8012006,-30.000000,40.000000,14.750000
8012012,30.000000,40.000000,14.750000
8012013,40.000000,40.000000,14.750000
8012014,50.000000,40.000000,14.750000
8012015,60.000000,40.000000,14.750000
8012016,70.000000,40.000000,14.750000
8012017,80.000000,40.000000,14.750000
8013001,-80.000000,50.000000,14.750000
8013002,-70.000000,50.000000,14.750000
8013003,-60.000000,50.000000,14.750000
8013004,-50.000000,50.000000,14.750000
8013005,-40.000000,50.000000,14.750000
8013006,-30.000000,50.000000,14.750000
8013007,-20.000000,50.000000,14.750000
8013008,-10.000000,50.000000,14.750000
8013009,0.000000,50.000000,14.750000
8013010,10.000000,50.000000,14.750000
8013011,20.000000,50.000000,14.750000
8013012,30.000000,50.000000,14.750000
8013013,40.000000,50.000000,14.750000
8013014,50.000000,50.000000,14.750000
8013015,60.000000,50.000000,14.750000
8013016,70.000000,50.000000,14.750000
8013017,80.000000,50.000000,14.750000
8014001,-80.000000,60.000000,14.750000
8014002,-70.000000,60.000000,14.750000
8014003,-60.000000,60.000000,14.750000
8014004,-50.000000,60.000000,14.750000
8014005,-40.000000,60.000000,14.750000
8014006,-30.000000,60.000000,14.750000
8014007,-20.000000,60.000000,14.750000
8014008,-10.000000,60.000000,14.750000
8014009,0.000000,60.000000,14.750000
8014010,10.000000,60.000000,14.750000
8014011,20.000000,60.000000,14.750000
8014012,30.000000,60.000000,14.750000
8014013,40.000000,60.000000,14.750000
8014014,50.000000,60.000000,14.750000
8014015,60.000000,60.000000,14.750000
8014016,70.000000,60.000000,14.750000
8014017,80.000000,60.000000,14.750000
8015001,-80.000000,70.000000,14.750000
8015002,-70.000000,70.000000,14.750000
8015003,-60.000000,70.000000,14.750000
8015004,-50.000000,70.000000,14.750000
8015005,-40.000000,70.000000,14.750000
8015006,-30.000000,70.000000,14.750000
8015007,-20.000000,70.000000,14.750000
8015008,-10.000000,70.000000,14.750000
8015009,0.000000,70.000000,14.750000
8015010,10.000000,70.000000,14.750000
8015011,20.000000,70.000000,14.750000
8015012,30.000000,70.000000,14.750000
8015013,40.000000,70.000000,14.750000
8015014,50.000000,70.000000,14.750000
8015015,60.000000,70.000000,14.750000
8015016,70.000000,70.000000,14.750000
8015017,80.000000,70.000000,14.750000
8016001,-80.000000,80.000000,14.750000
8016002,-70.000000,80.000000,14.750000
8016003,-60.000000,80.000000,14.750000
8016004,-50.000000,80.000000,14.750000
8016005,-40.000000,80.000000,14.750000
8016006,-30.000000,80.000000,14.750000
8016007,-20.000000,80.000000,14.750000
8016008,-10.000000,80.000000,14.750000
8016009,0.000000,80.000000,14.750000
8016010,10.000000,80.000000,14.750000
8016011,20.000000,80.000000,14.750000
8016012,30.000000,80.000000,14.750000
8016013,40.000000,80.000000,14.750000
8016014,50.000000,80.000000,14.750000
8016015,60.000000,80.000000,14.750000
8016016,70.000000,80.000000,14.750000
8016017,80.000000,80.000000,14.750000
9000001,-80.000000,-80.000000,16.750000
9000002,-70.000000,-80.000000,16.750000
9000003,-60.000000,-80.000000,16.750000
9000004,-50.000000,-80.000000,16.750000
9000005,-40.000000,-80.000000,16.750000
9000006,-30.000000,-80.000000,16.750000
9000007,-20.000000,-80.000000,16.750000
9000008,-10.000000,-80.000000,16.750000
9000009,0.000000,-80.000000,16.750000
9000010,10.000000,-80.000000,16.750000
9000011,20.000000,-80.000000,16.750000
9000012,30.000000,-80.000000,16.750000
9000013,40.000000,-80.000000,16.750000
9000014,50.000000,-80.000000,16.750000
9000015,60.000000,-80.000000,16.750000
9000016,70.000000,-80.000000,16.750000
9000017,80.000000,-80.000000,16.750000
9001001,-80.000000,-70.000000,16.750000
9001002,-70.000000,-70.000000,16.750000
9001003,-60.000000,-70.000000,16.750000
9001004,-50.000000,-70.000000,16.750000
9001005,-40.000000,-70.000000,16.750000
9001006,-30.000000,-70.000000,16.750000
9001007,-20.000000,-70.000000,16.750000
9001008,-10.000000,-70.000000,16.750000
9001009,0.000000,-70.000000,16.750000
9001010,10.000000,-70.000000,16.750000
9001011,20.000000,-70.000000,16.750000
9001012,30.000000,-70.000000,16.750000
9001013,40.000000,-70.000000,16.750000
9001014,50.000000,-70.000000,16.750000
9001015,60.000000,-70.000000,16.750000
9001016,70.000000,-70.000000,16.750000
9001017,80.000000,-70.000000,16.750000
9002001,-80.000000,-60.000000,16.750000
9002002,-70.000000,-60.000000,16.750000
9002003,-60.000000,-60.000000,16.750000
9002004,-50.000000,-60.000000,16.750000
9002005,-40.000000,-60.000000,16.750000
9002006,-30.000000,-60.000000,16.750000
9002007,-20.000000,-60.000000,16.750000
9002008,-10.000000,-60.000000,16.750000
9002009,0.000000,-60.000000,16.750000
9002010,10.000000,-60.000000,16.750000
9002011,20.000000,-60.000000,16.750000
9002012,30.000000,-60.000000,16.750000
9002013,40.000000,-60.000000,16.750000
9002014,50.000000,-60.000000,16.750000
9002015,60.000000,-60.000000,16.750000
9002016,70.000000,-60.000000,16.750000
9002017,80.000000,-60.000000,16.750000
9003001,-80.000000,-50.000000,16.750000
9003002,-70.000000,-50.000000,16.750000
9003003,-60.000000,-50.000000,16.750000
9003004,-50.000000,-50.000000,16.750000
9003005,-40.000000,-50.000000,16.750000
9003006,-30.000000,-50.000000,16.750000
9003007,-20.000000,-50.000000,16.750000
9003008,-10.000000,-50.000000,16.750000
9003009,0.000000,-50.000000,16.750000
9003010,10.000000,-50.000000,16.750000
9003011,20.000000,-50.000000,16.750000
9003012,30.000000,-50.000000,16.750000
9003013,40.000000,-50.000000,16.750000
9003014,50.000000,-50.000000,16.750000
9003015,60.000000,-50.000000,16.750000
9003016,70.000000,-50.000000,16.750000
9003017,80.000000,-50.000000,16.750000
9004001,-80.000000,-40.000000,16.750000
9004002,-70.000000,-40.000000,16.750000
9004003,-60.000000,-40.000000,16.750000
9004004,-50.000000,-40.000000,16.750000
9004005,-40.000000,-40.000000,16.750000
9004006,-30.000000,-40.000000,16.750000
9004012,30.000000,-40.000000,16.750000
9004013,40.000000,-40.000000,16.750000
9004014,50.000000,-40.000000,16.750000
9004015,60.000000,-40.000000,16.750000
9004016,70.000000,-40.000000,16.750000
9004017,80.000000,-40.000000,16.750000
9005001,-80.000000,-30.000000,16.750000
9005002,-70.000000,-30.000000,16.750000
9005003,-60.000000,-30.000000,16.750000
9005004,-50.000000,-30.000000,16.750000
9005005,-40.000000,-30.000000,16.750000
9005013,40.000000,-30.000000,16.750000
9005014,50.000000,-30.000000,16.750000
9005015,60.000000,-30.000000,16.750000
9005016,70.000000,-30.000000,16.750000
9005017,80.000000,-30.000000,16.750000
9006001,-80.000000,-20.000000,16.750000
9006002,-70.000000,-20.000000,16.750000
9006003,-60.000000,-20.000000,16.750000
9006004,-50.000000,-20.000000,16.750000
9006014,50.000000,-20.000000,16.750000
9006015,60.000000,-20.000000,16.750000
9006016,70.000000,-20.000000,16.750000
9006017,80.000000,-20.000000,16.750000
9007001,-80.000000,-10.000000,16.750000
9007002,-70.000000,-10.000000,16.750000
9007003,-60.000000,-10.000000,16.750000
9007004,-50.000000,-10.000000,16.750000
9007014,50.000000,-10.000000,16.750000
9007015,60.000000,-10.000000,16.750000
9007016,70.000000,-10.000000,16.750000
9007017,80.000000,-10.000000,16.750000
9008001,-80.000000,0.000000,16.750000
9008002,-70.000000,0.000000,16.750000
9008003,-60.000000,0.000000,16.750000
9008004,-50.000000,0.000000,16.750000
9008014,50.000000,0.000000,16.750000
9008015,60.000000,0.000000,16.750000
9008016,70.000000,0.000000,16.750000
9008017,80.000000,0.000000,16.750000
9009001,-80.000000,10.000000,16.750000
9009002,-70.000000,10.000000,16.750000
9009003,-60.000000,10.000000,16.750000
9009004,-50.000000,10.000000,16.750000
9009014,50.000000,10.000000,16.750000
9009015,60.000000,10.000000,16.750000
9009016,70.000000,10.000000,16.750000
9009017,80.000000,10.000000,16.750000
9010001,-80.000000,20.000000,16.750000
9010002,-70.000000,20.000000,16.750000
9010003,-60.000000,20.000000,16.750000
9010004,-50.000000,20.000000,16.750000
9010014,50.000000,20.000000,16.750000
9010015,60.000000,20.000000,16.750000
9010016,70.000000,20.000000,16.750000
9010017,80.000000,20.000000,16.750000
9011001,-80.000000,30.000000,16.750000
9011002,-70.000000,30.000000,16.750000
9011003,-60.000000,30.000000,16.750000
9011004,-50.000000,30.000000,16.750000
9011005,-40.000000,30.000000,16.750000
9011013,40.000000,30.000000,16.750000
9011014,50.000000,30.000000,16.750000
9011015,60.000000,30.000000,16.750000
9011016,70.000000,30.000000,16.750000
9011017,80.000000,30.000000,16.750000
9012001,-80.000000,40.000000,16.750000
9012002,-70.000000,40.000000,16.750000
9012003,-60.000000,40.000000,16.750000
9012004,-50.000000,40.000000,16.750000
9012005,-40.000000,40.000000,16.750000
9012006,-30.000000,40.000000,16.750000
9012012,30.000000,40.000000,16.750000
9012013,40.000000,40.000000,16.750000
9012014,50.000000,40.000000,16.750000
9012015,60.000000,40.000000,16.750000
9012016,70.000000,40.000000,16.750000
9012017,80.000000,40.000000,16.750000
9013001,-80.000000,50.000000,16.750000
9013002,-70.000000,50.000000,16.750000
9013003,-60.000000,50.000000,16.750000
9013004,-50.000000,50.000000,16.750000
9013005,-40.000000,50.000000,16.750000
9013006,-30.000000,50.000000,16.750000
9013007,-20.000000,50.000000,16.750000
9013008,-10.000000,50.000000,16.750000
9013009,0.000000,50.000000,16.750000
9013010,10.000000,50.000000,16.750000
9013011,20.000000,50.000000,16.750000
9013012,30.000000,50.000000,16.750000
9013013,40.000000,50.000000,16.750000
9013014,50.000000,50.000000,16.750000
9013015,60.000000,50.000000,16.750000
9013016,70.000000,50.000000,16.750000
9013017,80.000000,50.000000,16.750000
9014001,-80.000000,60.000000,16.750000
9014002,-70.000000,60.000000,16.750000
9014003,-60.000000,60.000000,16.750000
9014004,-50.000000,60.000000,16.750000
9014005,-40.000000,60.000000,16.750000
9014006,-30.000000,60.000000,16.750000
9014007,-20.000000,60.000000,16.750000
9014008,-10.000000,60.000000,16.750000
9014009,0.000000,60.000000,16.750000
9014010,10.000000,60.000000,16.750000
9014011,20.000000,60.000000,16.750000
9014012,30.000000,60.000000,16.750000
9014013,40.000000,60.000000,16.750000
9014014,50.000000,60.000000,16.750000
9014015,60.000000,60.000000,16.750000
9014016,70.000000,60.000000,16.750000
9014017,80.000000,60.000000,16.750000
9015001,-80.000000,70.000000,16.750000
9015002,-70.000000,70.000000,16.750000
9015003,-60.000000,70.000000,16.750000
9015004,-50.000000,70.000000,16.750000
9015005,-40.000000,70.000000,16.750000
9015006,-30.000000,70.000000,16.750000
9015007,-20.000000,70.000000,16.750000
9015008,-10.000000,70.000000,16.750000
9015009,0.000000,70.000000,16.750000
9015010,10.000000,70.000000,16.750000
9015011,20.000000,70.000000,16.750000
9015012,30.000000,70.000000,16.750000
9015013,40.000000,70.000000,16.750000
9015014,50.000000,70.000000,16.750000
9015015,60.000000,70.000000,16.750000
9015016,70.000000,70.000000,16.750000
9015017,80.000000,70.000000,16.750000
9016001,-80.000000,80.000000,16.750000
9016002,-70.000000,80.000000,16.750000
9016003,-60.000000,80.000000,16.750000
9016004,-50.000000,80.000000,16.750000
9016005,-40.000000,80.000000,16.750000
9016006,-30.000000,80.000000,16.750000
9016007,-20.000000,80.000000,16.750000
9016008,-10.000000,80.000000,16.750000
9016009,0.000000,80.000000,16.750000
9016010,10.000000,80.000000,16.750000
9016011,20.000000,80.000000,16.750000
9016012,30.000000,80.000000,16.750000
9016013,40.000000,80.000000,16.750000
9016014,50.000000,80.000000,16.750000
9016015,60.000000,80.000000,16.750000
9016016,70.000000,80.000000,16.750000
9016017,80.000000,80.000000,16.750000
10000001,-80.000000,-80.000000,18.750000
10000002,-70.000000,-80.000000,18.750000
10000003,-60.000000,-80.000000,18.750000
10000004,-50.000000,-80.000000,18.750000
10000005,-40.000000,-80.000000,18.750000
10000006,-30.000000,-80.000000,18.750000
10000007,-20.000000,-80.000000,18.750000
10000008,-10.000000,-80.000000,18.750000
10000009,0.000000,-80.000000,18.750000
10000010,10.000000,-80.000000,18.750000
10000011,20.000000,-80.000000,18.750000
10000012,30.000000,-80.000000,18.750000
10000013,40.000000,-80.000000,18.750000
10000014,50.000000,-80.000000,18.750000
10000015,60.000000,-80.000000,18.750000
10000016,70.000000,-80.000000,18.750000
10000017,80.000000,-80.000000,18.750000
10001001,-80.000000,-70.000000,18.750000
10001002,-70.000000,-70.000000,18.750000
10001003,-60.000000,-70.000000,18.750000
10001004,-50.000000,-70.000000,18.750000
10001005,-40.000000,-70.000000,18.750000
10001006,-30.000000,-70.000000,18.750000
10001007,-20.000000,-70.000000,18.750000
10001008,-10.000000,-70.000000,18.750000
10001009,0.000000,-70.000000,18.750000
10001010,10.000000,-70.000000,18.750000
10001011,20.000000,-70.000000,18.750000
10001012,30.000000,-70.000000,18.750000
10001013,40.000000,-70.000000,18.750000
10001014,50.000000,-70.000000,18.750000
10001015,60.000000,-70.000000,18.750000
10001016,70.000000,-70.000000,18.750000
10001017,80.000000,-70.000000,18.750000
10002001,-80.000000,-60.000000,18.750000
10002002,-70.000000,-60.000000,18.750000
10002003,-60.000000,-60.000000,18.750000
10002004,-50.000000,-60.000000,18.750000
10002005,-40.000000,-60.000000,18.750000
10002006,-30.000000,-60.000000,18.750000
10002007,-20.000000,-60.000000,18.750000
10002008,-10.000000,-60.000000,18.750000
10002009,0.000000,-60.000000,18.750000
10002010,10.000000,-60.000000,18.750000
10002011,20.000000,-60.000000,18.750000
10002012,30.000000,-60.000000,18.750000
10002013,40.000000,-60.000000,18.750000
10002014,50.000000,-60.000000,18.750000
10002015,60.000000,-60.000000,18.750000
10002016,70.000000,-60.000000,18.750000
10002017,80.000000,-60.000000,18.750000
10003001,-80.000000,-50.000000,18.750000
10003002,-70.000000,-50.000000,18.750000
10003003,-60.000000,-50.000000,18.750000
10003004,-50.000000,-50.000000,18.750000
10003005,-40.000000,-50.000000,18.750000
10003006,-30.000000,-50.000000,18.750000
10003007,-20.000000,-50.000000,18.750000
10003008,-10.000000,-50.000000,18.750000
10003009,0.000000,-50.000000,18.750000
10003010,10.000000,-50.000000,18.750000
10003011,20.000000,-50.000000,18.750000
10003012,30.000000,-50.000000,18.750000
10003013,40.000000,-50.000000,18.750000
10003014,50.000000,-50.000000,18.750000
10003015,60.000000,-50.000000,18.750000
10003016,70.000000,-50.000000,18.750000
10003017,80.000000,-50.000000,18.750000
10004001,-80.000000,-40.000000,18.750000
10004002,-70.000000,-40.000000,18.750000
10004003,-60.000000,-40.000000,18.750000
10004004,-50.000000,-40.000000,18.750000
10004005,-40.000000,-40.000000,18.750000
10004006,-30.000000,-40.000000,18.750000
10004007,-20.000000,-40.000000,18.750000
10004008,-10.000000,-40.000000,18.750000
10004009,0.000000,-40.000000,18.750000
10004010,10.000000,-40.000000,18.750000
10004011,20.000000,-40.000000,18.750000
10004012,30.000000,-40.000000,18.750000
10004013,40.000000,-40.000000,18.750000
10004014,50.000000,-40.000000,18.750000
10004015,60.000000,-40.000000,18.750000
10004016,70.000000,-40.000000,18.750000
10004017,80.000000,-40.000000,18.750000
10005001,-80.000000,-30.000000,18.750000
10005002,-70.000000,-30.000000,18.750000
10005003,-60.000000,-30.000000,18.750000
10005004,-50.000000,-30.000000,18.750000
10005005,-40.000000,-30.000000,18.750000
10005006,-30.000000,-30.000000,18.750000
10005007,-20.000000,-30.000000,18.750000
10005008,-10.000000,-30.000000,18.750000
10005009,0.000000,-30.000000,18.750000
10005010,10.000000,-30.000000,18.750000
10005011,20.000000,-30.000000,18.750000
10005012,30.000000,-30.000000,18.750000
10005013,40.000000,-30.000000,18.750000
10005014,50.000000,-30.000000,18.750000
10005015,60.000000,-30.000000,18.750000
10005016,70.000000,-30.000000,18.750000
10005017,80.000000,-30.000000,18.750000
10006001,-80.000000,-20.000000,18.750000
10006002,-70.000000,-20.000000,18.750000
10006003,-60.000000,-20.000000,18.750000
10006004,-50.000000,-20.000000,18.750000
10006005,-40.000000,-20.000000,18.750000
10006006,-30.000000,-20.000000,18.750000
10006007,-20.000000,-20.000000,18.750000
10006008,-10.000000,-20.000000,18.750000
10006009,0.000000,-20.000000,18.750000
10006010,10.000000,-20.000000,18.750000
10006011,20.000000,-20.000000,18.750000
10006012,30.000000,-20.000000,18.750000
10006013,40.000000,-20.000000,18.750000
10006014,50.000000,-20.000000,18.750000
10006015,60.000000,-20.000000,18.750000
10006016,70.000000,-20.000000,18.750000
10006017,80.000000,-20.000000,18.750000
10007001,-80.000000,-10.000000,18.750000
10007002,-70.000000,-10.000000,18.750000
10007003,-60.000000,-10.000000,18.750000
10007004,-50.000000,-10.000000,18.750000
10007005,-40.000000,-10.000000,18.750000
10007006,-30.000000,-10.000000,18.750000
10007007,-20.000000,-10.000000,18.750000
10007008,-10.000000,-10.000000,18.750000
10007009,0.000000,-10.000000,18.750000
10007010,10.000000,-10.000000,18.750000
10007011,20.000000,-10.000000,18.750000
10007012,30.000000,-10.000000,18.750000
10007013,40.000000,-10.000000,18.750000
10007014,50.000000,-10.000000,18.750000
10007015,60.000000,-10.000000,18.750000
10007016,70.000000,-10.000000,18.750000
10007017,80.000000,-10.000000,18.750000
10008001,-80.000000,0.000000,18.750000
10008002,-70.000000,0.000000,18.750000
10008003,-60.000000,0.000000,18.750000
10008004,-50.000000,0.000000,18.750000
10008005,-40.000000,0.000000,18.750000
10008006,-30.000000,0.000000,18.750000
10008007,-20.000000,0.000000,18.750000
10008008,-10.000000,0.000000,18.750000
10008009,0.000000,0.000000,18.750000
10008010,10.000000,0.000000,18.750000
10008011,20.000000,0.000000,18.750000
10008012,30.000000,0.000000,18.750000
10008013,40.000000,0.000000,18.750000
10008014,50.000000,0.000000,18.750000
10008015,60.000000,0.000000,18.750000
10008016,70.000000,0.000000,18.750000
10008017,80.000000,0.000000,18.750000
10009001,-80.000000,10.000000,18.750000
10009002,-70.000000,10.000000,18.750000
10009003,-60.000000,10.000000,18.750000
10009004,-50.000000,10.000000,18.750000
10009005,-40.000000,10.000000,18.750000
10009006,-30.000000,10.000000,18.750000
10009007,-20.000000,10.000000,18.750000
10009008,-10.000000,10.000000,18.750000
10009009,0.000000,10.000000,18.750000
10009010,10.000000,10.000000,18.750000
10009011,20.000000,10.000000,18.750000
10009012,30.000000,10.000000,18.750000
10009013,40.000000,10.000000,18.750000
10009014,50.000000,10.000000,18.750000
10009015,60.000000,10.000000,18.750000
10009016,70.000000,10.000000,18.750000
10009017,80.000000,10.000000,18.750000
10010001,-80.000000,20.000000,18.750000
10010002,-70.000000,20.000000,18.750000
10010003,-60.000000,20.000000,18.750000
10010004,-50.000000,20.000000,18.750000
10010005,-40.000000,20.000000,18.750000
10010006,-30.000000,20.000000,18.750000
10010007,-20.000000,20.000000,18.750000
10010008,-10.000000,20.000000,18.750000
10010009,0.000000,20.000000,18.750000
10010010,10.000000,20.000000,18.750000
10010011,20.000000,20.000000,18.750000
10010012,30.000000,20.000000,18.750000
10010013,40.000000,20.000000,18.750000
10010014,50.000000,20.000000,18.750000
10010015,60.000000,20.000000,18.750000
10010016,70.000000,20.000000,18.750000
10010017,80.000000,20.000000,18.750000
10011001,-80.000000,30.000000,18.750000
10011002,-70.000000,30.000000,18.750000
10011003,-60.000000,30.000000,18.750000
10011004,-50.000000,30.000000,18.750000
10011005,-40.000000,30.000000,18.750000
10011006,-30.000000,30.000000,18.750000
10011007,-20.000000,30.000000,18.750000
10011008,-10.000000,30.000000,18.750000
10011009,0.000000,30.000000,18.750000
10011010,10.000000,30.000000,18.750000
10011011,20.000000,30.000000,18.750000
10011012,30.000000,30.000000,18.750000
10011013,40.000000,30.000000,18.750000
10011014,50.000000,30.000000,18.750000
10011015,60.000000,30.000000,18.750000
10011016,70.000000,30.000000,18.750000
10011017,80.000000,30.000000,18.750000
10012001,-80.000000,40.000000,18.750000
10012002,-70.000000,40.000000,18.750000
10012003,-60.000000,40.000000,18.750000
10012004,-50.000000,40.000000,18.750000
10012005,-40.000000,40.000000,18.750000
10012006,-30.000000,40.000000,18.750000
10012007,-20.000000,40.000000,18.750000
10012008,-10.000000,40.000000,18.750000
10012009,0.000000,40.000000,18.750000
10012010,10.000000,40.000000,18.750000
10012011,20.000000,40.000000,18.750000
10012012,30.000000,40.000000,18.750000
10012013,40.000000,40.000000,18.750000
10012014,50.000000,40.000000,18.750000
10012015,60.000000,40.000000,18.750000
10012016,70.000000,40.000000,18.750000
10012017,80.000000,40.000000,18.750000
10013001,-80.000000,50.000000,18.750000
10013002,-70.000000,50.000000,18.750000
10013003,-60.000000,50.000000,18.750000
10013004,-50.000000,50.000000,18.750000
10013005,-40.000000,50.000000,18.750000
10013006,-30.000000,50.000000,18.750000
10013007,-20.000000,50.000000,18.750000
10013008,-10.000000,50.000000,18.750000
10013009,0.000000,50.000000,18.750000
10013010,10.000000,50.000000,18.750000
10013011,20.000000,50.000000,18.750000
10013012,30.000000,50.000000,18.750000
10013013,40.000000,50.000000,18.750000
10013014,50.000000,50.000000,18.750000
10013015,60.000000,50.000000,18.750000
10013016,70.000000,50.000000,18.750000
10013017,80.000000,50.000000,18.750000
10014001,-80.000000,60.000000,18.750000
10014002,-70.000000,60.000000,18.750000
10014003,-60.000000,60.000000,18.750000
10014004,-50.000000,60.000000,18.750000
10014005,-40.000000,60.000000,18.750000
10014006,-30.000000,60.000000,18.750000
10014007,-20.000000,60.000000,18.750000
10014008,-10.000000,60.000000,18.750000
10014009,0.000000,60.000000,18.750000
10014010,10.000000,60.000000,18.750000
10014011,20.000000,60.000000,18.750000
10014012,30.000000,60.000000,18.750000
10014013,40.000000,60.000000,18.750000
10014014,50.000000,60.000000,18.750000
10014015,60.000000,60.000000,18.750000
10014016,70.000000,60.000000,18.750000
10014017,80.000000,60.000000,18.750000
10015001,-80.000000,70.000000,18.750000
10015002,-70.000000,70.000000,18.750000
10015003,-60.000000,70.000000,18.750000
10015004,-50.000000,70.000000,18.750000
10015005,-40.000000,70.000000,18.750000
10015006,-30.000000,70.000000,18.750000
10015007,-20.000000,70.000000,18.750000
10015008,-10.000000,70.000000,18.750000
10015009,0.000000,70.000000,18.750000
10015010,10.000000,70.000000,18.750000
10015011,20.000000,70.000000,18.750000
10015012,30.000000,70.000000,18.750000
10015013,40.000000,70.000000,18.750000
10015014,50.000000,70.000000,18.750000
10015015,60.000000,70.000000,18.750000
10015016,70.000000,70.000000,18.750000
10015017,80.000000,70.000000,18.750000
10016001,-80.000000,80.000000,18.750000
10016002,-70.000000,80.000000,18.750000
10016003,-60.000000,80.000000,18.750000
10016004,-50.000000,80.000000,18.750000
10016005,-40.000000,80.000000,18.750000
10016006,-30.000000,80.000000,18.750000
10016007,-20.000000,80.000000,18.750000
10016008,-10.000000,80.000000,18.750000
10016009,0.000000,80.000000,18.750000
10016010,10.000000,80.000000,18.750000
10016011,20.000000,80.000000,18.750000
10016012,30.000000,80.000000,18.750000
10016013,40.000000,80.000000,18.750000
10016014,50.000000,80.000000,18.750000
10016015,60.000000,80.000000,18.750000
10016016,70.000000,80.000000,18.750000
10016017,80.000000,80.000000,18.750000
11000001,-80.000000,-80.000000,20.750000
11000002,-70.000000,-80.000000,20.750000
11000003,-60.000000,-80.000000,20.750000
11000004,-50.000000,-80.000000,20.750000
11000005,-40.000000,-80.000000,20.750000
11000006,-30.000000,-80.000000,20.750000
11000007,-20.000000,-80.000000,20.750000
11000008,-10.000000,-80.000000,20.750000
11000009,0.000000,-80.000000,20.750000
11000010,10.000000,-80.000000,20.750000
11000011,20.000000,-80.000000,20.750000
11000012,30.000000,-80.000000,20.750000
11000013,40.000000,-80.000000,20.750000
11000014,50.000000,-80.000000,20.750000
11000015,60.000000,-80.000000,20.750000
11000016,70.000000,-80.000000,20.750000
11000017,80.000000,-80.000000,20.750000
11001001,-80.000000,-70.000000,20.750000
11001002,-70.000000,-70.000000,20.750000
11001003,-60.000000,-70.000000,20.750000
11001004,-50.000000,-70.000000,20.750000
11001005,-40.000000,-70.000000,20.750000
11001006,-30.000000,-70.000000,20.750000
11001007,-20.000000,-70.000000,20.750000
11001008,-10.000000,-70.000000,20.750000
11001009,0.000000,-70.000000,20.750000
11001010,10.000000,-70.000000,20.750000
11001011,20.000000,-70.000000,20.750000
11001012,30.000000,-70.000000,20.750000
11001013,40.000000,-70.000000,20.750000
11001014,50.000000,-70.000000,20.750000
11001015,60.000000,-70.000000,20.750000
11001016,70.000000,-70.000000,20.750000
11001017,80.000000,-70.000000,20.750000
11002001,-80.000000,-60.000000,20.750000
11002002,-70.000000,-60.000000,20.750000
11002003,-60.000000,-60.000000,20.750000
11002004,-50.000000,-60.000000,20.750000
11002005,-40.000000,-60.000000,20.750000
11002006,-30.000000,-60.000000,20.750000
11002007,-20.000000,-60.000000,20.750000
11002008,-10.000000,-60.000000,20.750000
11002009,0.000000,-60.000000,20.750000
11002010,10.000000,-60.000000,20.750000
11002011,20.000000,-60.000000,20.750000
11002012,30.000000,-60.000000,20.750000
11002013,40.000000,-60.000000,20.750000
11002014,50.000000,-60.000000,20.750000
11002015,60.000000,-60.000000,20.750000
11002016,70.000000,-60.000000,20.750000
11002017,80.000000,-60.000000,20.750000
11003001,-80.000000,-50.000000,20.750000
11003002,-70.000000,-50.000000,20.750000
11003003,-60.000000,-50.000000,20.750000
11003004,-50.000000,-50.000000,20.750000
11003005,-40.000000,-50.000000,20.750000
11003006,-30.000000,-50.000000,20.750000
11003007,-20.000000,-50.000000,20.750000
11003008,-10.000000,-50.000000,20.750000
11003009,0.000000,-50.000000,20.750000
11003010,10.000000,-50.000000,20.750000
11003011,20.000000,-50.000000,20.750000
11003012,30.000000,-50.000000,20.750000
11003013,40.000000,-50.000000,20.750000
11003014,50.000000,-50.000000,20.750000
11003015,60.000000,-50.000000,20.750000
11003016,70.000000,-50.000000,20.750000
11003017,80.000000,-50.000000,20.750000
11004001,-80.000000,-40.000000,20.750000
11004002,-70.000000,-40.000000,20.750000
11004003,-60.000000,-40.000000,20.750000
11004004,-50.000000,-40.000000,20.750000
11004005,-40.000000,-40.000000,20.750000
11004006,-30.000000,-40.000000,20.750000
11004007,-20.000000,-40.000000,20.750000
11004008,-10.000000,-40.000000,20.750000
11004009,0.000000,-40.000000,20.750000
11004010,10.000000,-40.000000,20.750000
11004011,20.000000,-40.000000,20.750000
11004012,30.000000,-40.000000,20.750000
11004013,40.000000,-40.000000,20.750000
11004014,50.000000,-40.000000,20.750000
11004015,60.000000,-40.000000,20.750000
11004016,70.000000,-40.000000,20.750000
11004017,80.000000,-40.000000,20.750000
11005001,-80.000000,-30.000000,20.750000
11005002,-70.000000,-30.000000,20.750000
11005003,-60.000000,-30.000000,20.750000
11005004,-50.000000,-30.000000,20.750000
11005005,-40.000000,-30.000000,20.750000
11005006,-30.000000,-30.000000,20.750000
11005007,-20.000000,-30.000000,20.750000
11005008,-10.000000,-30.000000,20.750000
11005009,0.000000,-30.000000,20.750000
11005010,10.000000,-30.000000,20.750000
11005011,20.000000,-30.000000,20.750000
11005012,30.000000,-30.000000,20.750000
11005013,40.000000,-30.000000,20.750000
11005014,50.000000,-30.000000,20.750000
11005015,60.000000,-30.000000,20.750000
11005016,70.000000,-30.000000,20.750000
11005017,80.000000,-30.000000,20.750000
11006001,-80.000000,-20.000000,20.750000
11006002,-70.000000,-20.000000,20.750000
11006003,-60.000000,-20.000000,20.750000
11006004,-50.000000,-20.000000,20.750000
11006005,-40.000000,-20.000000,20.750000
11006006,-30.000000,-20.000000,20.750000
11006007,-20.000000,-20.000000,20.750000
11006008,-10.000000,-20.000000,20.750000
11006009,0.000000,-20.000000,20.750000
11006010,10.000000,-20.000000,20.750000
11006011,20.000000,-20.000000,20.750000
11006012,30.000000,-20.000000,20.750000
11006013,40.000000,-20.000000,20.750000
11006014,50.000000,-20.000000,20.750000
11006015,60.000000,-20.000000,20.750000
11006016,70.000000,-20.000000,20.750000
11006017,80.000000,-20.000000,20.750000
11007001,-80.000000,-10.000000,20.750000
11007002,-70.000000,-10.000000,20.750000
11007003,-60.000000,-10.000000,20.750000
11007004,-50.000000,-10.000000,20.750000
11007005,-40.000000,-10.000000,20.750000
11007006,-30.000000,-10.000000,20.750000
11007007,-20.000000,-10.000000,20.750000
11007008,-10.000000,-10.000000,20.750000
11007009,0.000000,-10.000000,20.750000
11007010,10.000000,-10.000000,20.750000
11007011,20.000000,-10.000000,20.750000
11007012,30.000000,-10.000000,20.750000
11007013,40.000000,-10.000000,20.750000
11007014,50.000000,-10.000000,20.750000
11007015,60.000000,-10.000000,20.750000
11007016,70.000000,-10.000000,20.750000
11007017,80.000000,-10.000000,20.750000
11008001,-80.000000,0.000000,20.750000
11008002,-70.000000,0.000000,20.750000
11008003,-60.000000,0.000000,20.750000
11008004,-50.000000,0.000000,20.750000
11008005,-40.000000,0.000000,20.750000
11008006,-30.000000,0.000000,20.750000
11008007,-20.000000,0.000000,20.750000
11008008,-10.000000,0.000000,20.750000
11008009,0.000000,0.000000,20.750000
11008010,10.000000,0.000000,20.750000
11008011,20.000000,0.000000,20.750000
11008012,30.000000,0.000000,20.750000
11008013,40.000000,0.000000,20.750000
11008014,50.000000,0.000000,20.750000
11008015,60.000000,0.000000,20.750000
11008016,70.000000,0.000000,20.750000
11008017,80.000000,0.000000,20.750000
11009001,-80.000000,10.000000,20.750000
11009002,-70.000000,10.000000,20.750000
11009003,-60.000000,10.000000,20.750000
11009004,-50.000000,10.000000,20.750000
11009005,-40.000000,10.000000,20.750000
11009006,-30.000000,10.000000,20.750000
11009007,-20.000000,10.000000,20.750000
11009008,-10.000000,10.000000,20.750000
11009009,0.000000,10.000000,20.750000
11009010,10.000000,10.000000,20.750000
11009011,20.000000,10.000000,20.750000
11009012,30.000000,10.000000,20.750000
11009013,40.000000,10.000000,20.750000
11009014,50.000000,10.000000,20.750000
11009015,60.000000,10.000000,20.750000
11009016,70.000000,10.000000,20.750000
11009017,80.000000,10.000000,20.750000
11010001,-80.000000,20.000000,20.750000
11010002,-70.000000,20.000000,20.750000
11010003,-60.000000,20.000000,20.750000
11010004,-50.000000,20.000000,20.750000
11010005,-40.000000,20.000000,20.750000
11010006,-30.000000,20.000000,20.750000
11010007,-20.000000,20.000000,20.750000
11010008,-10.000000,20.000000,20.750000
11010009,0.000000,20.000000,20.750000
11010010,10.000000,20.000000,20.750000
11010011,20.000000,20.000000,20.750000
11010012,30.000000,20.000000,20.750000
11010013,40.000000,20.000000,20.750000
11010014,50.000000,20.000000,20.750000
11010015,60.000000,20.000000,20.750000
11010016,70.000000,20.000000,20.750000
11010017,80.000000,20.000000,20.750000
11011001,-80.000000,30.000000,20.750000
11011002,-70.000000,30.000000,20.750000
11011003,-60.000000,30.000000,20.750000
11011004,-50.000000,30.000000,20.750000
11011005,-40.000000,30.000000,20.750000
11011006,-30.000000,30.000000,20.750000
11011007,-20.000000,30.000000,20.750000
11011008,-10.000000,30.000000,20.750000
11011009,0.000000,30.000000,20.750000
11011010,10.000000,30.000000,20.750000
11011011,20.000000,30.000000,20.750000
11011012,30.000000,30.000000,20.750000
11011013,40.000000,30.000000,20.750000
11011014,50.000000,30.000000,20.750000
11011015,60.000000,30.000000,20.750000
11011016,70.000000,30.000000,20.750000
11011017,80.000000,30.000000,20.750000
11012001,-80.000000,40.000000,20.750000
11012002,-70.000000,40.000000,20.750000
11012003,-60.000000,40.000000,20.750000
11012004,-50.000000,40.000000,20.750000
11012005,-40.000000,40.000000,20.750000
11012006,-30.000000,40.000000,20.750000
11012007,-20.000000,40.000000,20.750000
11012008,-10.000000,40.000000,20.750000
11012009,0.000000,40.000000,20.750000
11012010,10.000000,40.000000,20.750000
11012011,20.000000,40.000000,20.750000
11012012,30.000000,40.000000,20.750000
11012013,40.000000,40.000000,20.750000
11012014,50.000000,40.000000,20.750000
11012015,60.000000,40.000000,20.750000
11012016,70.000000,40.000000,20.750000
11012017,80.000000,40.000000,20.750000
11013001,-80.000000,50.000000,20.750000
11013002,-70.000000,50.000000,20.750000
11013003,-60.000000,50.000000,20.750000
11013004,-50.000000,50.000000,20.750000
11013005,-40.000000,50.000000,20.750000
11013006,-30.000000,50.000000,20.750000
11013007,-20.000000,50.000000,20.750000
11013008,-10.000000,50.000000,20.750000
11013009,0.000000,50.000000,20.750000
11013010,10.000000,50.000000,20.750000
11013011,20.000000,50.000000,20.750000
11013012,30.000000,50.000000,20.750000
11013013,40.000000,50.000000,20.750000
11013014,50.000000,50.000000,20.750000
11013015,60.000000,50.000000,20.750000
11013016,70.000000,50.000000,20.750000
11013017,80.000000,50.000000,20.750000
11014001,-80.000000,60.000000,20.750000
11014002,-70.000000,60.000000,20.750000
11014003,-60.000000,60.000000,20.750000
11014004,-50.000000,60.000000,20.750000
11014005,-40.000000,60.000000,20.750000
11014006,-30.000000,60.000000,20.750000
11014007,-20.000000,60.000000,20.750000
11014008,-10.000000,60.000000,20.750000
11014009,0.000000,60.000000,20.750000
11014010,10.000000,60.000000,20.750000
11014011,20.000000,60.000000,20.750000
11014012,30.000000,60.000000,20.750000
11014013,40.000000,60.000000,20.750000
11014014,50.000000,60.000000,20.750000
11014015,60.000000,60.000000,20.750000
11014016,70.000000,60.000000,20.750000
11014017,80.000000,60.000000,20.750000
11015001,-80.000000,70.000000,20.750000
11015002,-70.000000,70.000000,20.750000
11015003,-60.000000,70.000000,20.750000
11015004,-50.000000,70.000000,20.750000
11015005,-40.000000,70.000000,20.750000
11015006,-30.000000,70.000000,20.750000
11015007,-20.000000,70.000000,20.750000
11015008,-10.000000,70.000000,20.750000
11015009,0.000000,70.000000,20.750000
11015010,10.000000,70.000000,20.750000
11015011,20.000000,70.000000,20.750000
11015012,30.000000,70.000000,20.750000
11015013,40.000000,70.000000,20.750000
11015014,50.000000,70.000000,20.750000
11015015,60.000000,70.000000,20.750000
11015016,70.000000,70.000000,20.750000
11015017,80.000000,70.000000,20.750000
11016001,-80.000000,80.000000,20.750000
11016002,-70.000000,80.000000,20.750000
11016003,-60.000000,80.000000,20.750000
11016004,-50.000000,80.000000,20.750000
11016005,-40.000000,80.000000,20.750000
11016006,-30.000000,80.000000,20.750000
11016007,-20.000000,80.000000,20.750000
11016008,-10.000000,80.000000,20.750000
11016009,0.000000,80.000000,20.750000
11016010,10.000000,80.000000,20.750000
11016011,20.000000,80.000000,20.750000
11016012,30.000000,80.000000,20.750000
11016013,40.000000,80.000000,20.750000
11016014,50.000000,80.000000,20.750000
11016015,60.000000,80.000000,20.750000
11016016,70.000000,80.000000,20.750000
11016017,80.000000,80.000000,20.750000
12000001,-80.000000,-80.000000,22.750000
12000002,-70.000000,-80.000000,22.750000
12000003,-60.000000,-80.000000,22.750000
12000004,-50.000000,-80.000000,22.750000
12000005,-40.000000,-80.000000,22.750000
12000006,-30.000000,-80.000000,22.750000
12000007,-20.000000,-80.000000,22.750000
12000008,-10.000000,-80.000000,22.750000
12000009,0.000000,-80.000000,22.750000
12000010,10.000000,-80.000000,22.750000
12000011,20.000000,-80.000000,22.750000
12000012,30.000000,-80.000000,22.750000
12000013,40.000000,-80.000000,22.750000
12000014,50.000000,-80.000000,22.750000
12000015,60.000000,-80.000000,22.750000
12000016,70.000000,-80.000000,22.750000
12000017,80.000000,-80.000000,22.750000
12001001,-80.000000,-70.000000,22.750000
12001002,-70.000000,-70.000000,22.750000
12001003,-60.000000,-70.000000,22.750000
12001004,-50.000000,-70.000000,22.750000
12001005,-40.000000,-70.000000,22.750000
12001006,-30.000000,-70.000000,22.750000
12001007,-20.000000,-70.000000,22.750000
12001008,-10.000000,-70.000000,22.750000
12001009,0.000000,-70.000000,22.750000
12001010,10.000000,-70.000000,22.750000
12001011,20.000000,-70.000000,22.750000
12001012,30.000000,-70.000000,22.750000
12001013,40.000000,-70.000000,22.750000
12001014,50.000000,-70.000000,22.750000
12001015,60.000000,-70.000000,22.750000
12001016,70.000000,-70.000000,22.750000
12001017,80.000000,-70.000000,22.750000
12002001,-80.000000,-60.000000,22.750000
12002002,-70.000000,-60.000000,22.750000
12002003,-60.000000,-60.000000,22.750000
12002004,-50.000000,-60.000000,22.750000
12002005,-40.000000,-60.000000,22.750000
12002006,-30.000000,-60.000000,22.750000
12002007,-20.000000,-60.000000,22.750000
12002008,-10.000000,-60.000000,22.750000
12002009,0.000000,-60.000000,22.750000
12002010,10.000000,-60.000000,22.750000
12002011,20.000000,-60.000000,22.750000
12002012,30.000000,-60.000000,22.750000
12002013,40.000000,-60.000000,22.750000
12002014,50.000000,-60.000000,22.750000
12002015,60.000000,-60.000000,22.750000
12002016,70.000000,-60.000000,22.750000
12002017,80.000000,-60.000000,22.750000
12003001,-80.000000,-50.000000,22.750000
12003002,-70.000000,-50.000000,22.750000
12003003,-60.000000,-50.000000,22.750000
12003004,-50.000000,-50.000000,22.750000
12003005,-40.000000,-50.000000,22.750000
12003006,-30.000000,-50.000000,22.750000
12003007,-20.000000,-50.000000,22.750000
12003008,-10.000000,-50.000000,22.750000
12003009,0.000000,-50.000000,22.750000
12003010,10.000000,-50.000000,22.750000
12003011,20.000000,-50.000000,22.750000
12003012,30.000000,-50.000000,22.750000
12003013,40.000000,-50.000000,22.750000
12003014,50.000000,-50.000000,22.750000
12003015,60.000000,-50.000000,22.750000
12003016,70.000000,-50.000000,22.750000
12003017,80.000000,-50.000000,22.750000
12004001,-80.000000,-40.000000,22.750000
12004002,-70.000000,-40.000000,22.750000
12004003,-60.000000,-40.000000,22.750000
12004004,-50.000000,-40.000000,22.750000
12004005,-40.000000,-40.000000,22.750000
12004006,-30.000000,-40.000000,22.750000
12004007,-20.000000,-40.000000,22.750000
12004008,-10.000000,-40.000000,22.750000
12004009,0.000000,-40.000000,22.750000
12004010,10.000000,-40.000000,22.750000
12004011,20.000000,-40.000000,22.750000
12004012,30.000000,-40.000000,22.750000
12004013,40.000000,-40.000000,22.750000
12004014,50.000000,-40.000000,22.750000
12004015,60.000000,-40.000000,22.750000
12004016,70.000000,-40.000000,22.750000
12004017,80.000000,-40.000000,22.750000
12005001,-80.000000,-30.000000,22.750000
12005002,-70.000000,-30.000000,22.750000
12005003,-60.000000,-30.000000,22.750000
12005004,-50.000000,-30.000000,22.750000
12005005,-40.000000,-30.000000,22.750000
12005006,-30.000000,-30.000000,22.750000
12005007,-20.000000,-30.000000,22.750000
12005008,-10.000000,-30.000000,22.750000
12005009,0.000000,-30.000000,22.750000
12005010,10.000000,-30.000000,22.750000
12005011,20.000000,-30.000000,22.750000
12005012,30.000000,-30.000000,22.750000
12005013,40.000000,-30.000000,22.750000
12005014,50.000000,-30.000000,22.750000
12005015,60.000000,-30.000000,22.750000
12005016,70.000000,-30.000000,22.750000
12005017,80.000000,-30.000000,22.750000
12006001,-80.000000,-20.000000,22.750000
12006002,-70.000000,-20.000000,22.750000
12006003,-60.000000,-20.000000,22.750000
12006004,-50.000000,-20.000000,22.750000
12006005,-40.000000,-20.000000,22.750000
12006006,-30.000000,-20.000000,22.750000
12006007,-20.000000,-20.000000,22.750000
12006008,-10.000000,-20.000000,22.750000
12006009,0.000000,-20.000000,22.750000
12006010,10.000000,-20.000000,22.750000
12006011,20.000000,-20.000000,22.750000
12006012,30.000000,-20.000000,22.750000
12006013,40.000000,-20.000000,22.750000
12006014,50.000000,-20.000000,22.750000
12006015,60.000000,-20.000000,22.750000
12006016,70.000000,-20.000000,22.750000
12006017,80.000000,-20.000000,22.750000
12007001,-80.000000,-10.000000,22.750000
12007002,-70.000000,-10.000000,22.750000
12007003,-60.000000,-10.000000,22.750000
12007004,-50.000000,-10.000000,22.750000
12007005,-40.000000,-10.000000,22.750000
12007006,-30.000000,-10.000000,22.750000
12007007,-20.000000,-10.000000,22.750000
12007008,-10.000000,-10.000000,22.750000
12007009,0.000000,-10.000000,22.750000
12007010,10.000000,-10.000000,22.750000
12007011,20.000000,-10.000000,22.750000
12007012,30.000000,-10.000000,22.750000
12007013,40.000000,-10.000000,22.750000
12007014,50.000000,-10.000000,22.750000
12007015,60.000000,-10.000000,22.750000
12007016,70.000000,-10.000000,22.750000
12007017,80.000000,-10.000000,22.750000
12008001,-80.000000,0.000000,22.750000
12008002,-70.000000,0.000000,22.750000
12008003,-60.000000,0.000000,22.750000
12008004,-50.000000,0.000000,22.750000
12008005,-40.000000,0.000000,22.750000
12008006,-30.000000,0.000000,22.750000
12008007,-20.000000,0.000000,22.750000
12008008,-10.000000,0.000000,22.750000
12008009,0.000000,0.000000,22.750000
12008010,10.000000,0.000000,22.750000
12008011,20.000000,0.000000,22.750000
12008012,30.000000,0.000000,22.750000
12008013,40.000000,0.000000,22.750000
12008014,50.000000,0.000000,22.750000
12008015,60.000000,0.000000,22.750000
12008016,70.000000,0.000000,22.750000
12008017,80.000000,0.000000,22.750000
12009001,-80.000000,10.000000,22.750000
12009002,-70.000000,10.000000,22.750000
12009003,-60.000000,10.000000,22.750000
12009004,-50.000000,10.000000,22.750000
12009005,-40.000000,10.000000,22.750000
12009006,-30.000000,10.000000,22.750000
12009007,-20.000000,10.000000,22.750000
12009008,-10.000000,10.000000,22.750000
12009009,0.000000,10.000000,22.750000
12009010,10.000000,10.000000,22.750000
12009011,20.000000,10.000000,22.750000
12009012,30.000000,10.000000,22.750000
12009013,40.000000,10.000000,22.750000
12009014,50.000000,10.000000,22.750000
12009015,60.000000,10.000000,22.750000
12009016,70.000000,10.000000,22.750000
12009017,80.000000,10.000000,22.750000
12010001,-80.000000,20.000000,22.750000
12010002,-70.000000,20.000000,22.750000
12010003,-60.000000,20.000000,22.750000
12010004,-50.000000,20.000000,22.750000
12010005,-40.000000,20.000000,22.750000
12010006,-30.000000,20.000000,22.750000
12010007,-20.000000,20.000000,22.750000
12010008,-10.000000,20.000000,22.750000
12010009,0.000000,20.000000,22.750000
12010010,10.000000,20.000000,22.750000
12010011,20.000000,20.000000,22.750000
12010012,30.000000,20.000000,22.750000
12010013,40.000000,20.000000,22.750000
12010014,50.000000,20.000000,22.750000
12010015,60.000000,20.000000,22.750000
12010016,70.000000,20.000000,22.750000
12010017,80.000000,20.000000,22.750000
12011001,-80.000000,30.000000,22.750000
12011002,-70.000000,30.000000,22.750000
12011003,-60.000000,30.000000,22.750000
12011004,-50.000000,30.000000,22.750000
12011005,-40.000000,30.000000,22.750000
12011006,-30.000000,30.000000,22.750000
12011007,-20.000000,30.000000,22.750000
12011008,-10.000000,30.000000,22.750000
12011009,0.000000,30.000000,22.750000
12011010,10.000000,30.000000,22.750000
12011011,20.000000,30.000000,22.750000
12011012,30.000000,30.000000,22.750000
12011013,40.000000,30.000000,22.750000
12011014,50.000000,30.000000,22.750000
12011015,60.000000,30.000000,22.750000
12011016,70.000000,30.000000,22.750000
12011017,80.000000,30.000000,22.750000
12012001,-80.000000,40.000000,22.750000
12012002,-70.000000,40.000000,22.750000
12012003,-60.000000,40.000000,22.750000
12012004,-50.000000,40.000000,22.750000
12012005,-40.000000,40.000000,22.750000
12012006,-30.000000,40.000000,22.750000
12012007,-20.000000,40.000000,22.750000
12012008,-10.000000,40.000000,22.750000
12012009,0.000000,40.000000,22.750000
12012010,10.000000,40.000000,22.750000
12012011,20.000000,40.000000,22.750000
12012012,30.000000,40.000000,22.750000
12012013,40.000000,40.000000,22.750000
12012014,50.000000,40.000000,22.750000
12012015,60.000000,40.000000,22.750000
12012016,70.000000,40.000000,22.750000
12012017,80.000000,40.000000,22.750000
12013001,-80.000000,50.000000,22.750000
12013002,-70.000000,50.000000,22.750000
12013003,-60.000000,50.000000,22.750000
12013004,-50.000000,50.000000,22.750000
12013005,-40.000000,50.000000,22.750000
12013006,-30.000000,50.000000,22.750000
12013007,-20.000000,50.000000,22.750000
12013008,-10.000000,50.000000,22.750000
12013009,0.000000,50.000000,22.750000
12013010,10.000000,50.000000,22.750000
12013011,20.000000,50.000000,22.750000
12013012,30.000000,50.000000,22.750000
12013013,40.000000,50.000000,22.750000
12013014,50.000000,50.000000,22.750000
12013015,60.000000,50.000000,22.750000
12013016,70.000000,50.000000,22.750000
12013017,80.000000,50.000000,22.750000
12014001,-80.000000,60.000000,22.750000
12014002,-70.000000,60.000000,22.750000
12014003,-60.000000,60.000000,22.750000
12014004,-50.000000,60.000000,22.750000
12014005,-40.000000,60.000000,22.750000
12014006,-30.000000,60.000000,22.750000
12014007,-20.000000,60.000000,22.750000
12014008,-10.000000,60.000000,22.750000
12014009,0.000000,60.000000,22.750000
12014010,10.000000,60.000000,22.750000
12014011,20.000000,60.000000,22.750000
12014012,30.000000,60.000000,22.750000
12014013,40.000000,60.000000,22.750000
12014014,50.000000,60.000000,22.750000
12014015,60.000000,60.000000,22.750000
12014016,70.000000,60.000000,22.750000
12014017,80.000000,60.000000,22.750000
12015001,-80.000000,70.000000,22.750000
12015002,-70.000000,70.000000,22.750000
12015003,-60.000000,70.000000,22.750000
12015004,-50.000000,70.000000,22.750000
12015005,-40.000000,70.000000,22.750000
12015006,-30.000000,70.000000,22.750000
12015007,-20.000000,70.000000,22.750000
12015008,-10.000000,70.000000,22.750000
12015009,0.000000,70.000000,22.750000
12015010,10.000000,70.000000,22.750000
12015011,20.000000,70.000000,22.750000
12015012,30.000000,70.000000,22.750000
12015013,40.000000,70.000000,22.750000
12015014,50.000000,70.000000,22.750000
12015015,60.000000,70.000000,22.750000
12015016,70.000000,70.000000,22.750000
12015017,80.000000,70.000000,22.750000
12016001,-80.000000,80.000000,22.750000
12016002,-70.000000,80.000000,22.750000
12016003,-60.000000,80.000000,22.750000
12016004,-50.000000,80.000000,22.750000
12016005,-40.000000,80.000000,22.750000
12016006,-30.000000,80.000000,22.750000
12016007,-20.000000,80.000000,22.750000
12016008,-10.000000,80.000000,22.750000
12016009,0.000000,80.000000,22.750000
12016010,10.000000,80.000000,22.750000
12016011,20.000000,80.000000,22.750000
12016012,30.000000,80.000000,22.750000
12016013,40.000000,80.000000,22.750000
12016014,50.000000,80.000000,22.750000
12016015,60.000000,80.000000,22.750000
12016016,70.000000,80.000000,22.750000
12016017,80.000000,80.000000,22.750000
13001007,-20.000000,-70.000000,22.750000
13001008,-10.000000,-70.000000,22.750000
13001009,0.000000,-70.000000,22.750000
13001010,10.000000,-70.000000,22.750000
13001011,20.000000,-70.000000,22.750000
13002005,-40.000000,-60.000000,22.750000
13002006,-30.000000,-60.000000,22.750000
13002007,-20.000000,-60.000000,22.750000
13002008,-10.000000,-60.000000,22.750000
13002009,0.000000,-60.000000,22.750000
13002010,10.000000,-60.000000,22.750000
13002011,20.000000,-60.000000,22.750000
13002012,30.000000,-60.000000,22.750000
13002013,40.000000,-60.000000,22.750000
13003004,-50.000000,-50.000000,22.750000
13003005,-40.000000,-50.000000,22.750000
13003006,-30.000000,-50.000000,22.750000
13003007,-20.000000,-50.000000,22.750000
13003008,-10.000000,-50.000000,22.750000
13003009,0.000000,-50.000000,22.750000
13003010,10.000000,-50.000000,22.750000
13003011,20.000000,-50.000000,22.750000
13003012,30.000000,-50.000000,22.750000
13003013,40.000000,-50.000000,22.750000
13003014,50.000000,-50.000000,22.750000
13004003,-60.000000,-40.000000,22.750000
13004004,-50.000000,-40.000000,22.750000
13004005,-40.000000,-40.000000,22.750000
13004006,-30.000000,-40.000000,22.750000
13004007,-20.000000,-40.000000,22.750000
13004008,-10.000000,-40.000000,22.750000
13004009,0.000000,-40.000000,22.750000
13004010,10.000000,-40.000000,22.750000
13004011,20.000000,-40.000000,22.750000
13004012,30.000000,-40.000000,22.750000
13004013,40.000000,-40.000000,22.750000
13004014,50.000000,-40.000000,22.750000
13004015,60.000000,-40.000000,22.750000
13005003,-60.000000,-30.000000,22.750000
13005004,-50.000000,-30.000000,22.750000
13005005,-40.000000,-30.000000,22.750000
13005006,-30.000000,-30.000000,22.750000
13005007,-20.000000,-30.000000,22.750000
13005008,-10.000000,-30.000000,22.750000
13005009,0.000000,-30.000000,22.750000
13005010,10.000000,-30.000000,22.750000
13005011,20.000000,-30.000000,22.750000
13005012,30.000000,-30.000000,22.750000
13005013,40.000000,-30.000000,22.750000
13005014,50.000000,-30.000000,22.750000
13005015,60.000000,-30.000000,22.750000
13006002,-70.000000,-20.000000,22.750000
13006003,-60.000000,-20.000000,22.750000
13006004,-50.000000,-20.000000,22.750000
13006005,-40.000000,-20.000000,22.750000
13006006,-30.000000,-20.000000,22.750000
13006007,-20.000000,-20.000000,22.750000
13006008,-10.000000,-20.000000,22.750000
13006009,0.000000,-20.000000,22.750000
13006010,10.000000,-20.000000,22.750000
13006011,20.000000,-20.000000,22.750000
13006012,30.000000,-20.000000,22.750000
13006013,40.000000,-20.000000,22.750000
13006014,50.000000,-20.000000,22.750000
13006015,60.000000,-20.000000,22.750000
13006016,70.000000,-20.000000,22.750000
13007002,-70.000000,-10.000000,22.750000
13007003,-60.000000,-10.000000,22.750000
13007004,-50.000000,-10.000000,22.750000
13007005,-40.000000,-10.000000,22.750000
13007006,-30.000000,-10.000000,22.750000
13007007,-20.000000,-10.000000,22.750000
13007011,20.000000,-10.000000,22.750000
13007012,30.000000,-10.000000,22.750000
13007013,40.000000,-10.000000,22.750000
13007014,50.000000,-10.000000,22.750000
13007015,60.000000,-10.000000,22.750000
13007016,70.000000,-10.000000,22.750000
13008002,-70.000000,0.000000,22.750000
13008003,-60.000000,0.000000,22.750000
13008004,-50.000000,0.000000,22.750000
13008005,-40.000000,0.000000,22.750000
13008006,-30.000000,0.000000,22.750000
13008007,-20.000000,0.000000,22.750000
13008011,20.000000,0.000000,22.750000
13008012,30.000000,0.000000,22.750000
13008013,40.000000,0.000000,22.750000
13008014,50.000000,0.000000,22.750000
13008015,60.000000,0.000000,22.750000
13008016,70.000000,0.000000,22.750000
13009002,-70.000000,10.000000,22.750000
13009003,-60.000000,10.000000,22.750000
13009004,-50.000000,10.000000,22.750000
13009005,-40.000000,10.000000,22.750000
13009006,-30.000000,10.000000,22.750000
13009007,-20.000000,10.000000,22.750000
13009011,20.000000,10.000000,22.750000
13009012,30.000000,10.000000,22.750000
13009013,40.000000,10.000000,22.750000
13009014,50.000000,10.000000,22.750000
13009015,60.000000,10.000000,22.750000
13009016,70.000000,10.000000,22.750000
13010002,-70.000000,20.000000,22.750000
13010003,-60.000000,20.000000,22.750000
13010004,-50.000000,20.000000,22.750000
13010005,-40.000000,20.000000,22.750000
13010006,-30.000000,20.000000,22.750000
13010007,-20.000000,20.000000,22.750000
13010008,-10.000000,20.000000,22.750000
13010009,0.000000,20.000000,22.750000
13010010,10.000000,20.000000,22.750000
13010011,20.000000,20.000000,22.750000
13010012,30.000000,20.000000,22.750000
13010013,40.000000,20.000000,22.750000
13010014,50.000000,20.000000,22.750000
13010015,60.000000,20.000000,22.750000
13010016,70.000000,20.000000,22.750000
13011003,-60.000000,30.000000,22.750000
13011004,-50.000000,30.000000,22.750000
13011005,-40.000000,30.000000,22.750000
13011006,-30.000000,30.000000,22.750000
13011007,-20.000000,30.000000,22.750000
13011008,-10.000000,30.000000,22.750000
13011009,0.000000,30.000000,22.750000
13011010,10.000000,30.000000,22.750000
13011011,20.000000,30.000000,22.750000
13011012,30.000000,30.000000,22.750000
13011013,40.000000,30.000000,22.750000
13011014,50.000000,30.000000,22.750000
13011015,60.000000,30.000000,22.750000
13012003,-60.000000,40.000000,22.750000
13012004,-50.000000,40.000000,22.750000
13012005,-40.000000,40.000000,22.750000
13012006,-30.000000,40.000000,22.750000
13012007,-20.000000,40.000000,22.750000
13012008,-10.000000,40.000000,22.750000
13012009,0.000000,40.000000,22.750000
13012010,10.000000,40.000000,22.750000
13012011,20.000000,40.000000,22.750000
13012012,30.000000,40.000000,22.750000
13012013,40.000000,40.000000,22.750000
13012014,50.000000,40.000000,22.750000
13012015,60.000000,40.000000,22.750000
13013004,-50.000000,50.000000,22.750000
13013005,-40.000000,50.000000,22.750000
13013006,-30.000000,50.000000,22.750000
13013007,-20.000000,50.000000,22.750000
13013008,-10.000000,50.000000,22.750000
13013009,0.000000,50.000000,22.750000
13013010,10.000000,50.000000,22.750000
13013011,20.000000,50.000000,22.750000
13013012,30.000000,50.000000,22.750000
13013013,40.000000,50.000000,22.750000
13013014,50.000000,50.000000,22.750000
13014005,-40.000000,60.000000,22.750000
13014006,-30.000000,60.000000,22.750000
13014007,-20.000000,60.000000,22.750000
13014008,-10.000000,60.000000,22.750000
13014009,0.000000,60.000000,22.750000
13014010,10.000000,60.000000,22.750000
13014011,20.000000,60.000000,22.750000
13014012,30.000000,60.000000,22.750000
13014013,40.000000,60.000000,22.750000
13015007,-20.000000,70.000000,22.750000
13015008,-10.000000,70.000000,22.750000
13015009,0.000000,70.000000,22.750000
13015010,10.000000,70.000000,22.750000
13015011,20.000000,70.000000,22.750000
14001007,-20.000000,-70.000000,24.750000
14001008,-10.000000,-70.000000,24.750000
14001009,0.000000,-70.000000,24.750000
14001010,10.000000,-70.000000,24.750000
14001011,20.000000,-70.000000,24.750000
14002005,-40.000000,-60.000000,24.750000
14002006,-30.000000,-60.000000,24.750000
14002007,-20.000000,-60.000000,24.750000
14002008,-10.000000,-60.000000,24.750000
14002009,0.000000,-60.000000,24.750000
14002010,10.000000,-60.000000,24.750000
14002011,20.000000,-60.000000,24.750000
14002012,30.000000,-60.000000,24.750000
14002013,40.000000,-60.000000,24.750000
14003004,-50.000000,-50.000000,24.750000
14003005,-40.000000,-50.000000,24.750000
14003006,-30.000000,-50.000000,24.750000
14003007,-20.000000,-50.000000,24.750000
14003008,-10.000000,-50.000000,24.750000
14003009,0.000000,-50.000000,24.750000
14003010,10.000000,-50.000000,24.750000
14003011,20.000000,-50.000000,24.750000
14003012,30.000000,-50.000000,24.750000
14003013,40.000000,-50.000000,24.750000
14003014,50.000000,-50.000000,24.750000
14004003,-60.000000,-40.000000,24.750000
14004004,-50.000000,-40.000000,24.750000
14004005,-40.000000,-40.000000,24.750000
14004006,-30.000000,-40.000000,24.750000
14004007,-20.000000,-40.000000,24.750000
14004008,-10.000000,-40.000000,24.750000
14004009,0.000000,-40.000000,24.750000
14004010,10.000000,-40.000000,24.750000
14004011,20.000000,-40.000000,24.750000
14004012,30.000000,-40.000000,24.750000
14004013,40.000000,-40.000000,24.750000
14004014,50.000000,-40.000000,24.750000
14004015,60.000000,-40.000000,24.750000
14005003,-60.000000,-30.000000,24.750000
14005004,-50.000000,-30.000000,24.750000
14005005,-40.000000,-30.000000,24.750000
14005006,-30.000000,-30.000000,24.750000
14005007,-20.000000,-30.000000,24.750000
14005008,-10.000000,-30.000000,24.750000
14005009,0.000000,-30.000000,24.750000
14005010,10.000000,-30.000000,24.750000
14005011,20.000000,-30.000000,24.750000
14005012,30.000000,-30.000000,24.750000
14005013,40.000000,-30.000000,24.750000
14005014,50.000000,-30.000000,24.750000
14005015,60.000000,-30.000000,24.750000
14006002,-70.000000,-20.000000,24.750000
14006003,-60.000000,-20.000000,24.750000
14006004,-50.000000,-20.000000,24.750000
14006005,-40.000000,-20.000000,24.750000
14006006,-30.000000,-20.000000,24.750000
14006007,-20.000000,-20.000000,24.750000
14006008,-10.000000,-20.000000,24.750000
14006009,0.000000,-20.000000,24.750000
14006010,10.000000,-20.000000,24.750000
14006011,20.000000,-20.000000,24.750000
14006012,30.000000,-20.000000,24.750000
14006013,40.000000,-20.000000,24.750000
14006014,50.000000,-20.000000,24.750000
14006015,60.000000,-20.000000,24.750000
14006016,70.000000,-20.000000,24.750000
14007002,-70.000000,-10.000000,24.750000
14007003,-60.000000,-10.000000,24.750000
14007004,-50.000000,-10.000000,24.750000
14007005,-40.000000,-10.000000,24.750000
14007006,-30.000000,-10.000000,24.750000
14007007,-20.000000,-10.000000,24.750000
14007011,20.000000,-10.000000,24.750000
14007012,30.000000,-10.000000,24.750000
14007013,40.000000,-10.000000,24.750000
14007014,50.000000,-10.000000,24.750000
14007015,60.000000,-10.000000,24.750000
14007016,70.000000,-10.000000,24.750000
14008002,-70.000000,0.000000,24.750000
14008003,-60.000000,0.000000,24.750000
14008004,-50.000000,0.000000,24.750000
14008005,-40.000000,0.000000,24.750000
14008006,-30.000000,0.000000,24.750000
14008007,-20.000000,0.000000,24.750000
14008011,20.000000,0.000000,24.750000
14008012,30.000000,0.000000,24.750000
14008013,40.000000,0.000000,24.750000
14008014,50.000000,0.000000,24.750000
14008015,60.000000,0.000000,24.750000
14008016,70.000000,0.000000,24.750000
14009002,-70.000000,10.000000,24.750000
14009003,-60.000000,10.000000,24.750000
14009004,-50.000000,10.000000,24.750000
14009005,-40.000000,10.000000,24.750000
14009006,-30.000000,10.000000,24.750000
14009007,-20.000000,10.000000,24.750000
14009011,20.000000,10.000000,24.750000
14009012,30.000000,10.000000,24.750000
14009013,40.000000,10.000000,24.750000
14009014,50.000000,10.000000,24.750000
14009015,60.000000,10.000000,24.750000
14009016,70.000000,10.000000,24.750000
14010002,-70.000000,20.000000,24.750000
14010003,-60.000000,20.000000,24.750000
14010004,-50.000000,20.000000,24.750000
14010005,-40.000000,20.000000,24.750000
14010006,-30.000000,20.000000,24.750000
14010007,-20.000000,20.000000,24.750000
14010008,-10.000000,20.000000,24.750000
14010009,0.000000,20.000000,24.750000
14010010,10.000000,20.000000,24.750000
14010011,20.000000,20.000000,24.750000
14010012,30.000000,20.000000,24.750000
14010013,40.000000,20.000000,24.750000
14010014,50.000000,20.000000,24.750000
14010015,60.000000,20.000000,24.750000
14010016,70.000000,20.000000,24.750000
14011003,-60.000000,30.000000,24.750000
14011004,-50.000000,30.000000,24.750000
14011005,-40.000000,30.000000,24.750000
14011006,-30.000000,30.000000,24.750000
14011007,-20.000000,30.000000,24.750000
14011008,-10.000000,30.000000,24.750000
14011009,0.000000,30.000000,24.750000
14011010,10.000000,30.000000,24.750000
14011011,20.000000,30.000000,24.750000
14011012,30.000000,30.000000,24.750000
14011013,40.000000,30.000000,24.750000
14011014,50.000000,30.000000,24.750000
14011015,60.000000,30.000000,24.750000
14012003,-60.000000,40.000000,24.750000
14012004,-50.000000,40.000000,24.750000
14012005,-40.000000,40.000000,24.750000
14012006,-30.000000,40.000000,24.750000
14012007,-20.000000,40.000000,24.750000
14012008,-10.000000,40.000000,24.750000
14012009,0.000000,40.000000,24.750000
14012010,10.000000,40.000000,24.750000
14012011,20.000000,40.000000,24.750000
14012012,30.000000,40.000000,24.750000
14012013,40.000000,40.000000,24.750000
14012014,50.000000,40.000000,24.750000
14012015,60.000000,40.000000,24.750000
14013004,-50.000000,50.000000,24.750000
14013005,-40.000000,50.000000,24.750000
14013006,-30.000000,50.000000,24.750000
14013007,-20.000000,50.000000,24.750000
14013008,-10.000000,50.000000,24.750000
14013009,0.000000,50.000000,24.750000
14013010,10.000000,50.000000,24.750000
14013011,20.000000,50.000000,24.750000
14013012,30.000000,50.000000,24.750000
14013013,40.000000,50.000000,24.750000
14013014,50.000000,50.000000,24.750000
14014005,-40.000000,60.000000,24.750000
14014006,-30.000000,60.000000,24.750000
14014007,-20.000000,60.000000,24.750000
14014008,-10.000000,60.000000,24.750000
14014009,0.000000,60.000000,24.750000
14014010,10.000000,60.000000,24.750000
14014011,20.000000,60.000000,24.750000
14014012,30.000000,60.000000,24.750000
14014013,40.000000,60.000000,24.750000
14015007,-20.000000,70.000000,24.750000
14015008,-10.000000,70.000000,24.750000
14015009,0.000000,70.000000,24.750000
14015010,10.000000,70.000000,24.750000
14015011,20.000000,70.000000,24.750000
15001007,-20.000000,-70.000000,26.750000
15001008,-10.000000,-70.000000,26.750000
15001009,0.000000,-70.000000,26.750000
15001010,10.000000,-70.000000,26.750000
15001011,20.000000,-70.000000,26.750000
15002005,-40.000000,-60.000000,26.750000
15002006,-30.000000,-60.000000,26.750000
15002007,-20.000000,-60.000000,26.750000
15002008,-10.000000,-60.000000,26.750000
15002009,0.000000,-60.000000,26.750000
15002010,10.000000,-60.000000,26.750000
15002011,20.000000,-60.000000,26.750000
15002012,30.000000,-60.000000,26.750000
15002013,40.000000,-60.000000,26.750000
15003004,-50.000000,-50.000000,26.750000
15003005,-40.000000,-50.000000,26.750000
15003006,-30.000000,-50.000000,26.750000
15003007,-20.000000,-50.000000,26.750000
15003008,-10.000000,-50.000000,26.750000
15003009,0.000000,-50.000000,26.750000
15003010,10.000000,-50.000000,26.750000
15003011,20.000000,-50.000000,26.750000
15003012,30.000000,-50.000000,26.750000
15003013,40.000000,-50.000000,26.750000
15003014,50.000000,-50.000000,26.750000
15004003,-60.000000,-40.000000,26.750000
15004004,-50.000000,-40.000000,26.750000
15004005,-40.000000,-40.000000,26.750000
15004006,-30.000000,-40.000000,26.750000
15004007,-20.000000,-40.000000,26.750000
15004008,-10.000000,-40.000000,26.750000
15004009,0.000000,-40.000000,26.750000
15004010,10.000000,-40.000000,26.750000
15004011,20.000000,-40.000000,26.750000
15004012,30.000000,-40.000000,26.750000
15004013,40.000000,-40.000000,26.750000
15004014,50.000000,-40.000000,26.750000
15004015,60.000000,-40.000000,26.750000
15005003,-60.000000,-30.000000,26.750000
15005004,-50.000000,-30.000000,26.750000
15005005,-40.000000,-30.000000,26.750000
15005006,-30.000000,-30.000000,26.750000
15005007,-20.000000,-30.000000,26.750000
15005008,-10.000000,-30.000000,26.750000
15005009,0.000000,-30.000000,26.750000
15005010,10.000000,-30.000000,26.750000
15005011,20.000000,-30.000000,26.750000
15005012,30.000000,-30.000000,26.750000
15005013,40.000000,-30.000000,26.750000
15005014,50.000000,-30.000000,26.750000
15005015,60.000000,-30.000000,26.750000
15006002,-70.000000,-20.000000,26.750000
15006003,-60.000000,-20.000000,26.750000
15006004,-50.000000,-20.000000,26.750000
15006005,-40.000000,-20.000000,26.750000
15006006,-30.000000,-20.000000,26.750000
15006007,-20.000000,-20.000000,26.750000
15006008,-10.000000,-20.000000,26.750000
15006009,0.000000,-20.000000,26.750000
15006010,10.000000,-20.000000,26.750000
15006011,20.000000,-20.000000,26.750000
15006012,30.000000,-20.000000,26.750000
15006013,40.000000,-20.000000,26.750000
15006014,50.000000,-20.000000,26.750000
15006015,60.000000,-20.000000,26.750000
15006016,70.000000,-20.000000,26.750000
15007002,-70.000000,-10.000000,26.750000
15007003,-60.000000,-10.000000,26.750000
15007004,-50.000000,-10.000000,26.750000
15007005,-40.000000,-10.000000,26.750000
15007006,-30.000000,-10.000000,26.750000
15007007,-20.000000,-10.000000,26.750000
15007011,20.000000,-10.000000,26.750000
15007012,30.000000,-10.000000,26.750000
15007013,40.000000,-10.000000,26.750000
15007014,50.000000,-10.000000,26.750000
15007015,60.000000,-10.000000,26.750000
15007016,70.000000,-10.000000,26.750000
15008002,-70.000000,0.000000,26.750000
15008003,-60.000000,0.000000,26.750000
15008004,-50.000000,0.000000,26.750000
15008005,-40.000000,0.000000,26.750000
15008006,-30.000000,0.000000,26.750000
15008007,-20.000000,0.000000,26.750000
15008011,20.000000,0.000000,26.750000
15008012,30.000000,0.000000,26.750000
15008013,40.000000,0.000000,26.750000
15008014,50.000000,0.000000,26.750000
15008015,60.000000,0.000000,26.750000
15008016,70.000000,0.000000,26.750000
15009002,-70.000000,10.000000,26.750000
15009003,-60.000000,10.000000,26.750000
15009004,-50.000000,10.000000,26.750000
15009005,-40.000000,10.000000,26.750000
15009006,-30.000000,10.000000,26.750000
15009007,-20.000000,10.000000,26.750000
15009011,20.000000,10.000000,26.750000
15009012,30.000000,10.000000,26.750000
15009013,40.000000,10.000000,26.750000
15009014,50.000000,10.000000,26.750000
15009015,60.000000,10.000000,26.750000
15009016,70.000000,10.000000,26.750000
15010002,-70.000000,20.000000,26.750000
15010003,-60.000000,20.000000,26.750000
15010004,-50.000000,20.000000,26.750000
15010005,-40.000000,20.000000,26.750000
15010006,-30.000000,20.000000,26.750000
15010007,-20.000000,20.000000,26.750000
15010008,-10.000000,20.000000,26.750000
15010009,0.000000,20.000000,26.750000
15010010,10.000000,20.000000,26.750000
15010011,20.000000,20.000000,26.750000
15010012,30.000000,20.000000,26.750000
15010013,40.000000,20.000000,26.750000
15010014,50.000000,20.000000,26.750000
15010015,60.000000,20.000000,26.750000
15010016,70.000000,20.000000,26.750000
15011003,-60.000000,30.000000,26.750000
15011004,-50.000000,30.000000,26.750000
15011005,-40.000000,30.000000,26.750000
15011006,-30.000000,30.000000,26.750000
15011007,-20.000000,30.000000,26.750000
15011008,-10.000000,30.000000,26.750000
15011009,0.000000,30.000000,26.750000
15011010,10.000000,30.000000,26.750000
15011011,20.000000,30.000000,26.750000
15011012,30.000000,30.000000,26.750000
15011013,40.000000,30.000000,26.750000
15011014,50.000000,30.000000,26.750000
15011015,60.000000,30.000000,26.750000
15012003,-60.000000,40.000000,26.750000
15012004,-50.000000,40.000000,26.750000
15012005,-40.000000,40.000000,26.750000
15012006,-30.000000,40.000000,26.750000
15012007,-20.000000,40.000000,26.750000
15012008,-10.000000,40.000000,26.750000
15012009,0.000000,40.000000,26.750000
15012010,10.000000,40.000000,26.750000
15012011,20.000000,40.000000,26.750000
15012012,30.000000,40.000000,26.750000
15012013,40.000000,40.000000,26.750000
15012014,50.000000,40.000000,26.750000
15012015,60.000000,40.000000,26.750000
15013004,-50.000000,50.000000,26.750000
15013005,-40.000000,50.000000,26.750000
15013006,-30.000000,50.000000,26.750000
15013007,-20.000000,50.000000,26.750000
15013008,-10.000000,50.000000,26.750000
15013009,0.000000,50.000000,26.750000
15013010,10.000000,50.000000,26.750000
15013011,20.000000,50.000000,26.750000
15013012,30.000000,50.000000,26.750000
15013013,40.000000,50.000000,26.750000
15013014,50.000000,50.000000,26.750000
15014005,-40.000000,60.000000,26.750000
15014006,-30.000000,60.000000,26.750000
15014007,-20.000000,60.000000,26.750000
15014008,-10.000000,60.000000,26.750000
15014009,0.000000,60.000000,26.750000
15014010,10.000000,60.000000,26.750000
15014011,20.000000,60.000000,26.750000
15014012,30.000000,60.000000,26.750000
15014013,40.000000,60.000000,26.750000
15015007,-20.000000,70.000000,26.750000
15015008,-10.000000,70.000000,26.750000
15015009,0.000000,70.000000,26.750000
15015010,10.000000,70.000000,26.750000
15015011,20.000000,70.000000,26.750000
16001007,-20.000000,-70.000000,28.750000
16001008,-10.000000,-70.000000,28.750000
16001009,0.000000,-70.000000,28.750000
16001010,10.000000,-70.000000,28.750000
16001011,20.000000,-70.000000,28.750000
16002005,-40.000000,-60.000000,28.750000
16002006,-30.000000,-60.000000,28.750000
16002007,-20.000000,-60.000000,28.750000
16002008,-10.000000,-60.000000,28.750000
16002009,0.000000,-60.000000,28.750000
16002010,10.000000,-60.000000,28.750000
16002011,20.000000,-60.000000,28.750000
16002012,30.000000,-60.000000,28.750000
16002013,40.000000,-60.000000,28.750000
16003004,-50.000000,-50.000000,28.750000
16003005,-40.000000,-50.000000,28.750000
16003006,-30.000000,-50.000000,28.750000
16003007,-20.000000,-50.000000,28.750000
16003008,-10.000000,-50.000000,28.750000
16003009,0.000000,-50.000000,28.750000
16003010,10.000000,-50.000000,28.750000
16003011,20.000000,-50.000000,28.750000
16003012,30.000000,-50.000000,28.750000
16003013,40.000000,-50.000000,28.750000
16003014,50.000000,-50.000000,28.750000
16004003,-60.000000,-40.000000,28.750000
16004004,-50.000000,-40.000000,28.750000
16004005,-40.000000,-40.000000,28.750000
16004006,-30.000000,-40.000000,28.750000
16004007,-20.000000,-40.000000,28.750000
16004008,-10.000000,-40.000000,28.750000
16004009,0.000000,-40.000000,28.750000
16004010,10.000000,-40.000000,28.750000
16004011,20.000000,-40.000000,28.750000
16004012,30.000000,-40.000000,28.750000
16004013,40.000000,-40.000000,28.750000
16004014,50.000000,-40.000000,28.750000
16004015,60.000000,-40.000000,28.750000
16005003,-60.000000,-30.000000,28.750000
16005004,-50.000000,-30.000000,28.750000
16005005,-40.000000,-30.000000,28.750000
16005006,-30.000000,-30.000000,28.750000
16005007,-20.000000,-30.000000,28.750000
16005008,-10.000000,-30.000000,28.750000
16005009,0.000000,-30.000000,28.750000
16005010,10.000000,-30.000000,28.750000
16005011,20.000000,-30.000000,28.750000
16005012,30.000000,-30.000000,28.750000
16005013,40.000000,-30.000000,28.750000
16005014,50.000000,-30.000000,28.750000
16005015,60.000000,-30.000000,28.750000
16006002,-70.000000,-20.000000,28.750000
16006003,-60.000000,-20.000000,28.750000
16006004,-50.000000,-20.000000,28.750000
16006005,-40.000000,-20.000000,28.750000
16006006,-30.000000,-20.000000,28.750000
16006007,-20.000000,-20.000000,28.750000
16006008,-10.000000,-20.000000,28.750000
16006009,0.000000,-20.000000,28.750000
16006010,10.000000,-20.000000,28.750000
16006011,20.000000,-20.000000,28.750000
16006012,30.000000,-20.000000,28.750000
16006013,40.000000,-20.000000,28.750000
16006014,50.000000,-20.000000,28.750000
16006015,60.000000,-20.000000,28.750000
16006016,70.000000,-20.000000,28.750000
16007002,-70.000000,-10.000000,28.750000
16007003,-60.000000,-10.000000,28.750000
16007004,-50.000000,-10.000000,28.750000
16007005,-40.000000,-10.000000,28.750000
16007006,-30.000000,-10.000000,28.750000
16007007,-20.000000,-10.000000,28.750000
16007011,20.000000,-10.000000,28.750000
16007012,30.000000,-10.000000,28.750000
16007013,40.000000,-10.000000,28.750000
16007014,50.000000,-10.000000,28.750000
16007015,60.000000,-10.000000,28.750000
16007016,70.000000,-10.000000,28.750000
16008002,-70.000000,0.000000,28.750000
16008003,-60.000000,0.000000,28.750000
16008004,-50.000000,0.000000,28.750000
16008005,-40.000000,0.000000,28.750000
16008006,-30.000000,0.000000,28.750000
16008007,-20.000000,0.000000,28.750000
16008011,20.000000,0.000000,28.750000
16008012,30.000000,0.000000,28.750000
16008013,40.000000,0.000000,28.750000
16008014,50.000000,0.000000,28.750000
16008015,60.000000,0.000000,28.750000
16008016,70.000000,0.000000,28.750000
16009002,-70.000000,10.000000,28.750000
16009003,-60.000000,10.000000,28.750000
16009004,-50.000000,10.000000,28.750000
16009005,-40.000000,10.000000,28.750000
16009006,-30.000000,10.000000,28.750000
16009007,-20.000000,10.000000,28.750000
16009011,20.000000,10.000000,28.750000
16009012,30.000000,10.000000,28.750000
16009013,40.000000,10.000000,28.750000
16009014,50.000000,10.000000,28.750000
16009015,60.000000,10.000000,28.750000
16009016,70.000000,10.000000,28.750000
16010002,-70.000000,20.000000,28.750000
16010003,-60.000000,20.000000,28.750000
16010004,-50.000000,20.000000,28.750000
16010005,-40.000000,20.000000,28.750000
16010006,-30.000000,20.000000,28.750000
16010007,-20.000000,20.000000,28.750000
16010008,-10.000000,20.000000,28.750000
16010009,0.000000,20.000000,28.750000
16010010,10.000000,20.000000,28.750000
16010011,20.000000,20.000000,28.750000
16010012,30.000000,20.000000,28.750000
16010013,40.000000,20.000000,28.750000
16010014,50.000000,20.000000,28.750000
16010015,60.000000,20.000000,28.750000
16010016,70.000000,20.000000,28.750000
16011003,-60.000000,30.000000,28.750000
16011004,-50.000000,30.000000,28.750000
16011005,-40.000000,30.000000,28.750000
16011006,-30.000000,30.000000,28.750000
16011007,-20.000000,30.000000,28.750000
16011008,-10.000000,30.000000,28.750000
16011009,0.000000,30.000000,28.750000
16011010,10.000000,30.000000,28.750000
16011011,20.000000,30.000000,28.750000
16011012,30.000000,30.000000,28.750000
16011013,40.000000,30.000000,28.750000
16011014,50.000000,30.000000,28.750000
16011015,60.000000,30.000000,28.750000
16012003,-60.000000,40.000000,28.750000
16012004,-50.000000,40.000000,28.750000
16012005,-40.000000,40.000000,28.750000
16012006,-30.000000,40.000000,28.750000
16012007,-20.000000,40.000000,28.750000
16012008,-10.000000,40.000000,28.750000
16012009,0.000000,40.000000,28.750000
16012010,10.000000,40.000000,28.750000
16012011,20.000000,40.000000,28.750000
16012012,30.000000,40.000000,28.750000
16012013,40.000000,40.000000,28.750000
16012014,50.000000,40.000000,28.750000
16012015,60.000000,40.000000,28.750000
16013004,-50.000000,50.000000,28.750000
16013005,-40.000000,50.000000,28.750000
16013006,-30.000000,50.000000,28.750000
16013007,-20.000000,50.000000,28.750000
16013008,-10.000000,50.000000,28.750000
16013009,0.000000,50.000000,28.750000
16013010,10.000000,50.000000,28.750000
16013011,20.000000,50.000000,28.750000
16013012,30.000000,50.000000,28.750000
16013013,40.000000,50.000000,28.750000
16013014,50.000000,50.000000,28.750000
16014005,-40.000000,60.000000,28.750000
16014006,-30.000000,60.000000,28.750000
16014007,-20.000000,60.000000,28.750000
16014008,-10.000000,60.000000,28.750000
16014009,0.000000,60.000000,28.750000
16014010,10.000000,60.000000,28.750000
16014011,20.000000,60.000000,28.750000
16014012,30.000000,60.000000,28.750000
16014013,40.000000,60.000000,28.750000
16015007,-20.000000,70.000000,28.750000
16015008,-10.000000,70.000000,28.750000
16015009,0.000000,70.000000,28.750000
16015010,10.000000,70.000000,28.750000
16015011,20.000000,70.000000,28.750000
17001007,-20.000000,-70.000000,30.750000
17001008,-10.000000,-70.000000,30.750000
17001009,0.000000,-70.000000,30.750000
17001010,10.000000,-70.000000,30.750000
17001011,20.000000,-70.000000,30.750000
17002005,-40.000000,-60.000000,30.750000
17002006,-30.000000,-60.000000,30.750000
17002007,-20.000000,-60.000000,30.750000
17002008,-10.000000,-60.000000,30.750000
17002009,0.000000,-60.000000,30.750000
17002010,10.000000,-60.000000,30.750000
17002011,20.000000,-60.000000,30.750000
17002012,30.000000,-60.000000,30.750000
17002013,40.000000,-60.000000,30.750000
17003004,-50.000000,-50.000000,30.750000
17003005,-40.000000,-50.000000,30.750000
17003006,-30.000000,-50.000000,30.750000
17003007,-20.000000,-50.000000,30.750000
17003008,-10.000000,-50.000000,30.750000
17003009,0.000000,-50.000000,30.750000
17003010,10.000000,-50.000000,30.750000
17003011,20.000000,-50.000000,30.750000
17003012,30.000000,-50.000000,30.750000
17003013,40.000000,-50.000000,30.750000
17003014,50.000000,-50.000000,30.750000
17004003,-60.000000,-40.000000,30.750000
17004004,-50.000000,-40.000000,30.750000
17004005,-40.000000,-40.000000,30.750000
17004006,-30.000000,-40.000000,30.750000
17004007,-20.000000,-40.000000,30.750000
17004008,-10.000000,-40.000000,30.750000
17004009,0.000000,-40.000000,30.750000
17004010,10.000000,-40.000000,30.750000
17004011,20.000000,-40.000000,30.750000
17004012,30.000000,-40.000000,30.750000
17004013,40.000000,-40.000000,30.750000
17004014,50.000000,-40.000000,30.750000
17004015,60.000000,-40.000000,30.750000
17005003,-60.000000,-30.000000,30.750000
17005004,-50.000000,-30.000000,30.750000
17005005,-40.000000,-30.000000,30.750000
17005006,-30.000000,-30.000000,30.750000
17005007,-20.000000,-30.000000,30.750000
17005008,-10.000000,-30.000000,30.750000
17005009,0.000000,-30.000000,30.750000
17005010,10.000000,-30.000000,30.750000
17005011,20.000000,-30.000000,30.750000
17005012,30.000000,-30.000000,30.750000
17005013,40.000000,-30.000000,30.750000
17005014,50.000000,-30.000000,30.750000
17005015,60.000000,-30.000000,30.750000
17006002,-70.000000,-20.000000,30.750000
17006003,-60.000000,-20.000000,30.750000
17006004,-50.000000,-20.000000,30.750000
17006005,-40.000000,-20.000000,30.750000
17006006,-30.000000,-20.000000,30.750000
17006007,-20.000000,-20.000000,30.750000
17006008,-10.000000,-20.000000,30.750000
17006009,0.000000,-20.000000,30.750000
17006010,10.000000,-20.000000,30.750000
17006011,20.000000,-20.000000,30.750000
17006012,30.000000,-20.000000,30.750000
17006013,40.000000,-20.000000,30.750000
17006014,50.000000,-20.000000,30.750000
17006015,60.000000,-20.000000,30.750000
17006016,70.000000,-20.000000,30.750000
17007002,-70.000000,-10.000000,30.750000
17007003,-60.000000,-10.000000,30.750000
17007004,-50.000000,-10.000000,30.750000
17007005,-40.000000,-10.000000,30.750000
17007006,-30.000000,-10.000000,30.750000
17007007,-20.000000,-10.000000,30.750000
17007011,20.000000,-10.000000,30.750000
17007012,30.000000,-10.000000,30.750000
17007013,40.000000,-10.000000,30.750000
17007014,50.000000,-10.000000,30.750000
17007015,60.000000,-10.000000,30.750000
17007016,70.000000,-10.000000,30.750000
17008002,-70.000000,0.000000,30.750000
17008003,-60.000000,0.000000,30.750000
17008004,-50.000000,0.000000,30.750000
17008005,-40.000000,0.000000,30.750000
17008006,-30.000000,0.000000,30.750000
17008007,-20.000000,0.000000,30.750000
17008011,20.000000,0.000000,30.750000
17008012,30.000000,0.000000,30.750000
17008013,40.000000,0.000000,30.750000
17008014,50.000000,0.000000,30.750000
17008015,60.000000,0.000000,30.750000
17008016,70.000000,0.000000,30.750000
17009002,-70.000000,10.000000,30.750000
17009003,-60.000000,10.000000,30.750000
17009004,-50.000000,10.000000,30.750000
17009005,-40.000000,10.000000,30.750000
17009006,-30.000000,10.000000,30.750000
17009007,-20.000000,10.000000,30.750000
17009011,20.000000,10.000000,30.750000
17009012,30.000000,10.000000,30.750000
17009013,40.000000,10.000000,30.750000
17009014,50.000000,10.000000,30.750000
17009015,60.000000,10.000000,30.750000
17009016,70.000000,10.000000,30.750000
17010002,-70.000000,20.000000,30.750000
17010003,-60.000000,20.000000,30.750000
17010004,-50.000000,20.000000,30.750000
17010005,-40.000000,20.000000,30.750000
17010006,-30.000000,20.000000,30.750000
17010007,-20.000000,20.000000,30.750000
17010008,-10.000000,20.000000,30.750000
17010009,0.000000,20.000000,30.750000
17010010,10.000000,20.000000,30.750000
17010011,20.000000,20.000000,30.750000
17010012,30.000000,20.000000,30.750000
17010013,40.000000,20.000000,30.750000
17010014,50.000000,20.000000,30.750000
17010015,60.000000,20.000000,30.750000
17010016,70.000000,20.000000,30.750000
17011003,-60.000000,30.000000,30.750000
17011004,-50.000000,30.000000,30.750000
17011005,-40.000000,30.000000,30.750000
17011006,-30.000000,30.000000,30.750000
17011007,-20.000000,30.000000,30.750000
17011008,-10.000000,30.000000,30.750000
17011009,0.000000,30.000000,30.750000
17011010,10.000000,30.000000,30.750000
17011011,20.000000,30.000000,30.750000
17011012,30.000000,30.000000,30.750000
17011013,40.000000,30.000000,30.750000
17011014,50.000000,30.000000,30.750000
17011015,60.000000,30.000000,30.750000
17012003,-60.000000,40.000000,30.750000
17012004,-50.000000,40.000000,30.750000
17012005,-40.000000,40.000000,30.750000
17012006,-30.000000,40.000000,30.750000
17012007,-20.000000,40.000000,30.750000
17012008,-10.000000,40.000000,30.750000
17012009,0.000000,40.000000,30.750000
17012010,10.000000,40.000000,30.750000
17012011,20.000000,40.000000,30.750000
17012012,30.000000,40.000000,30.750000
17012013,40.000000,40.000000,30.750000
17012014,50.000000,40.000000,30.750000
17012015,60.000000,40.000000,30.750000
17013004,-50.000000,50.000000,30.750000
17013005,-40.000000,50.000000,30.750000
17013006,-30.000000,50.000000,30.750000
17013007,-20.000000,50.000000,30.750000
17013008,-10.000000,50.000000,30.750000
17013009,0.000000,50.000000,30.750000
17013010,10.000000,50.000000,30.750000
17013011,20.000000,50.000000,30.750000
17013012,30.000000,50.000000,30.750000
17013013,40.000000,50.000000,30.750000
17013014,50.000000,50.000000,30.750000
17014005,-40.000000,60.000000,30.750000
17014006,-30.000000,60.000000,30.750000
17014007,-20.000000,60.000000,30.750000
17014008,-10.000000,60.000000,30.750000
17014009,0.000000,60.000000,30.750000
17014010,10.000000,60.000000,30.750000
17014011,20.000000,60.000000,30.750000
17014012,30.000000,60.000000,30.750000
17014013,40.000000,60.000000,30.750000
17015007,-20.000000,70.000000,30.750000
17015008,-10.000000,70.000000,30.750000
17015009,0.000000,70.000000,30.750000
17015010,10.000000,70.000000,30.750000
17015011,20.000000,70.000000,30.750000
99000000,0.0,0.0,30.75
99000100,70.000000,70.000000,10.75
99000101,70.000000,-70.000000,10.75
99000102,-70.000000,70.000000,10.75
99000103,-70.000000,-70.000000,10.75
99000200,57.742471,23.917715,22.75
99000201,23.917715,57.742471,22.75
99000202,-23.917715,57.742471,22.75
99000203,-57.742471,23.917715,22.75
99000204,-57.742471,-23.917715,22.75
99000205,-23.917715,-57.742471,22.75
99000206,23.917715,-57.742471,22.75
99000207,57.742471,-23.917715,22.75
*ELEMENT,TYPE=C3D8I,ELSET=EALL
1,1000001,1000002,1001002,1001001,2000001,2000002,2001002,2001001
2,1000002,1000003,1001003,1001002,2000002,2000003,2001003,2001002
3,1000003,1000004,1001004,1001003,2000003,2000004,2001004,2001003
4,1000004,1000005,1001005,1001004,2000004,2000005,2001005,2001004
5,1000005,1000006,1001006,1001005,2000005,2000006,2001006,2001005
6,1000006,1000007,1001007,1001006,2000006,2000007,2001007,2001006
7,1000007,1000008,1001008,1001007,2000007,2000008,2001008,2001007
8,1000008,1000009,1001009,1001008,2000008,2000009,2001009,2001008
9,1000009,1000010,1001010,1001009,2000009,2000010,2001010,2001009
10,1000010,1000011,1001011,1001010,2000010,2000011,2001011,2001010
11,1000011,1000012,1001012,1001011,2000011,2000012,2001012,2001011
12,1000012,1000013,1001013,1001012,2000012,2000013,2001013,2001012
13,1000013,1000014,1001014,1001013,2000013,2000014,2001014,2001013
14,1000014,1000015,1001015,1001014,2000014,2000015,2001015,2001014
15,1000015,1000016,1001016,1001015,2000015,2000016,2001016,2001015
16,1000016,1000017,1001017,1001016,2000016,2000017,2001017,2001016
17,1001001,1001002,1002002,1002001,2001001,2001002,2002002,2002001
18,1001002,1001003,1002003,1002002,2001002,2001003,2002003,2002002
19,1001003,1001004,1002004,1002003,2001003,2001004,2002004,2002003
20,1001004,1001005,1002005,1002004,2001004,2001005,2002005,2002004
21,1001005,1001006,1002006,1002005,2001005,2001006,2002006,2002005
22,1001006,1001007,1002007,1002006,2001006,2001007,2002007,2002006
23,1001007,1001008,1002008,1002007,2001007,2001008,2002008,2002007
24,1001008,1001009,1002009,1002008,2001008,2001009,2002009,2002008
25,1001009,1001010,1002010,1002009,2001009,2001010,2002010,2002009
26,1001010,1001011,1002011,1002010,2001010,2001011,2002011,2002010
27,1001011,1001012,1002012,1002011,2001011,2001012,2002012,2002011
28,1001012,1001013,1002013,1002012,2001012,2001013,2002013,2002012
29,1001013,1001014,1002014,1002013,2001013,2001014,2002014,2002013
30,1001014,1001015,1002015,1002014,2001014,2001015,2002015,2002014
31,1001015,1001016,1002016,1002015,2001015,2001016,2002016,2002015
32,1001016,1001017,1002017,1002016,2001016,2001017,2002017,2002016
33,1002001,1002002,1003002,1003001,2002001,2002002,2003002,2003001
34,1002002,1002003,1003003,1003002,2002002,2002003,2003003,2003002
35,1002003,1002004,1003004,1003003,2002003,2002004,2003004,2003003
36,1002004,1002005,1003005,1003004,2002004,2002005,2003005,2003004
37,1002005,1002006,1003006,1003005,2002005,2002006,2003006,2003005
38,1002006,1002007,1003007,1003006,2002006,2002007,2003007,2003006
39,1002007,1002008,1003008,1003007,2002007,2002008,2003008,2003007
40,1002008,1002009,1003009,1003008,2002008,2002009,2003009,2003008
41,1002009,1002010,1003010,1003009,2002009,2002010,2003010,2003009
42,1002010,1002011,1003011,1003010,2002010,2002011,2003011,2003010
43,1002011,1002012,1003012,1003011,2002011,2002012,2003012,2003011
44,1002012,1002013,1003013,1003012,2002012,2002013,2003013,2003012
45,1002013,1002014,1003014,1003013,2002013,2002014,2003014,2003013
46,1002014,1002015,1003015,1003014,2002014,2002015,2003015,2003014
47,1002015,1002016,1003016,1003015,2002015,2002016,2003016,2003015
48,1002016,1002017,1003017,1003016,2002016,2002017,2003017,2003016
49,1003001,1003002,1004002,1004001,2003001,2003002,2004002,2004001
50,1003002,1003003,1004003,1004002,2003002,2003003,2004003,2004002
51,1003003,1003004,1004004,1004003,2003003,2003004,2004004,2004003
52,1003004,1003005,1004005,1004004,2003004,2003005,2004005,2004004
53,1003005,1003006,1004006,1004005,2003005,2003006,2004006,2004005
54,1003006,1003007,1004007,1004006,2003006,2003007,2004007,2004006
55,1003007,1003008,1004008,1004007,2003007,2003008,2004008,2004007
56,1003008,1003009,1004009,1004008,2003008,2003009,2004009,2004008
57,1003009,1003010,1004010,1004009,2003009,2003010,2004010,2004009
58,1003010,1003011,1004011,1004010,2003010,2003011,2004011,2004010
59,1003011,1003012,1004012,1004011,2003011,2003012,2004012,2004011
60,1003012,1003013,1004013,1004012,2003012,2003013,2004013,2004012
61,1003013,1003014,1004014,1004013,2003013,2003014,2004014,2004013
62,1003014,1003015,1004015,1004014,2003014,2003015,2004015,2004014
63,1003015,1003016,1004016,1004015,2003015,2003016,2004016,2004015
64,1003016,1003017,1004017,1004016,2003016,2003017,2004017,2004016
65,1004001,1004002,1005002,1005001,2004001,2004002,2005002,2005001
66,1004002,1004003,1005003,1005002,2004002,2004003,2005003,2005002
67,1004003,1004004,1005004,1005003,2004003,2004004,2005004,2005003
68,1004004,1004005,1005005,1005004,2004004,2004005,2005005,2005004
69,1004005,1004006,1005006,1005005,2004005,2004006,2005006,2005005
70,1004006,1004007,1005007,1005006,2004006,2004007,2005007,2005006
71,1004007,1004008,1005008,1005007,2004007,2004008,2005008,2005007
72,1004008,1004009,1005009,1005008,2004008,2004009,2005009,2005008
73,1004009,1004010,1005010,1005009,2004009,2004010,2005010,2005009
74,1004010,1004011,1005011,1005010,2004010,2004011,2005011,2005010
75,1004011,1004012,1005012,1005011,2004011,2004012,2005012,2005011
76,1004012,1004013,1005013,1005012,2004012,2004013,2005013,2005012
77,1004013,1004014,1005014,1005013,2004013,2004014,2005014,2005013
78,1004014,1004015,1005015,1005014,2004014,2004015,2005015,2005014
79,1004015,1004016,1005016,1005015,2004015,2004016,2005016,2005015
80,1004016,1004017,1005017,1005016,2004016,2004017,2005017,2005016
81,1005001,1005002,1006002,1006001,2005001,2005002,2006002,2006001
82,1005002,1005003,1006003,1006002,2005002,2005003,2006003,2006002
83,1005003,1005004,1006004,1006003,2005003,2005004,2006004,2006003
84,1005004,1005005,1006005,1006004,2005004,2005005,2006005,2006004
85,1005005,1005006,1006006,1006005,2005005,2005006,2006006,2006005
86,1005006,1005007,1006007,1006006,2005006,2005007,2006007,2006006
87,1005007,1005008,1006008,1006007,2005007,2005008,2006008,2006007
88,1005008,1005009,1006009,1006008,2005008,2005009,2006009,2006008
89,1005009,1005010,1006010,1006009,2005009,2005010,2006010,2006009
90,1005010,1005011,1006011,1006010,2005010,2005011,2006011,2006010
91,1005011,1005012,1006012,1006011,2005011,2005012,2006012,2006011
92,1005012,1005013,1006013,1006012,2005012,2005013,2006013,2006012
93,1005013,1005014,1006014,1006013,2005013,2005014,2006014,2006013
94,1005014,1005015,1006015,1006014,2005014,2005015,2006015,2006014
95,1005015,1005016,1006016,1006015,2005015,2005016,2006016,2006015
96,1005016,1005017,1006017,1006016,2005016,2005017,2006017,2006016
97,1006001,1006002,1007002,1007001,2006001,2006002,2007002,2007001
98,1006002,1006003,1007003,1007002,2006002,2006003,2007003,2007002
99,1006003,1006004,1007004,1007003,2006003,2006004,2007004,2007003
100,1006004,1006005,1007005,1007004,2006004,2006005,2007005,2007004
101,1006005,1006006,1007006,1007005,2006005,2006006,2007006,2007005
102,1006006,1006007,1007007,1007006,2006006,2006007,2007007,2007006
103,1006011,1006012,1007012,1007011,2006011,2006012,2007012,2007011
104,1006012,1006013,1007013,1007012,2006012,2006013,2007013,2007012
105,1006013,1006014,1007014,1007013,2006013,2006014,2007014,2007013
106,1006014,1006015,1007015,1007014,2006014,2006015,2007015,2007014
107,1006015,1006016,1007016,1007015,2006015,2006016,2007016,2007015
108,1006016,1006017,1007017,1007016,2006016,2006017,2007017,2007016
109,1007001,1007002,1008002,1008001,2007001,2007002,2008002,2008001
110,1007002,1007003,1008003,1008002,2007002,2007003,2008003,2008002
111,1007003,1007004,1008004,1008003,2007003,2007004,2008004,2008003
112,1007004,1007005,1008005,1008004,2007004,2007005,2008005,2008004
113,1007005,1007006,1008006,1008005,2007005,2007006,2008006,2008005
114,1007006,1007007,1008007,1008006,2007006,2007007,2008007,2008006
115,1007011,1007012,1008012,1008011,2007011,2007012,2008012,2008011
116,1007012,1007013,1008013,1008012,2007012,2007013,2008013,2008012
117,1007013,1007014,1008014,1008013,2007013,2007014,2008014,2008013
118,1007014,1007015,1008015,1008014,2007014,2007015,2008015,2008014
119,1007015,1007016,1008016,1008015,2007015,2007016,2008016,2008015
120,1007016,1007017,1008017,1008016,2007016,2007017,2008017,2008016
121,1008001,1008002,1009002,1009001,2008001,2008002,2009002,2009001
122,1008002,1008003,1009003,1009002,2008002,2008003,2009003,2009002
123,1008003,1008004,1009004,1009003,2008003,2008004,2009004,2009003
124,1008004,1008005,1009005,1009004,2008004,2008005,2009005,2009004
125,1008005,1008006,1009006,1009005,2008005,2008006,2009006,2009005
126,1008006,1008007,1009007,1009006,2008006,2008007,2009007,2009006
127,1008011,1008012,1009012,1009011,2008011,2008012,2009012,2009011
128,1008012,1008013,1009013,1009012,2008012,2008013,2009013,2009012
129,1008013,1008014,1009014,1009013,2008013,2008014,2009014,2009013
130,1008014,1008015,1009015,1009014,2008014,2008015,2009015,2009014
131,1008015,1008016,1009016,1009015,2008015,2008016,2009016,2009015
132,1008016,1008017,1009017,1009016,2008016,2008017,2009017,2009016
133,1009001,1009002,1010002,1010001,2009001,2009002,2010002,2010001
134,1009002,1009003,1010003,1010002,2009002,2009003,2010003,2010002
135,1009003,1009004,1010004,1010003,2009003,2009004,2010004,2010003
136,1009004,1009005,1010005,1010004,2009004,2009005,2010005,2010004
137,1009005,1009006,1010006,1010005,2009005,2009006,2010006,2010005
138,1009006,1009007,1010007,1010006,2009006,2009007,2010007,2010006
139,1009011,1009012,1010012,1010011,2009011,2009012,2010012,2010011
140,1009012,1009013,1010013,1010012,2009012,2009013,2010013,2010012
141,1009013,1009014,1010014,1010013,2009013,2009014,2010014,2010013
142,1009014,1009015,1010015,1010014,2009014,2009015,2010015,2010014
143,1009015,1009016,1010016,1010015,2009015,2009016,2010016,2010015
144,1009016,1009017,1010017,1010016,2009016,2009017,2010017,2010016
145,1010001,1010002,1011002,1011001,2010001,2010002,2011002,2011001
146,1010002,1010003,1011003,1011002,2010002,2010003,2011003,2011002
147,1010003,1010004,1011004,1011003,2010003,2010004,2011004,2011003
148,1010004,1010005,1011005,1011004,2010004,2010005,2011005,2011004
149,1010005,1010006,1011006,1011005,2010005,2010006,2011006,2011005
150,1010006,1010007,1011007,1011006,2010006,2010007,2011007,2011006
151,1010007,1010008,1011008,1011007,2010007,2010008,2011008,2011007
152,1010008,1010009,1011009,1011008,2010008,2010009,2011009,2011008
153,1010009,1010010,1011010,1011009,2010009,2010010,2011010,2011009
154,1010010,1010011,1011011,1011010,2010010,2010011,2011011,2011010
155,1010011,1010012,1011012,1011011,2010011,2010012,2011012,2011011
156,1010012,1010013,1011013,1011012,2010012,2010013,2011013,2011012
157,1010013,1010014,1011014,1011013,2010013,2010014,2011014,2011013
158,1010014,1010015,1011015,1011014,2010014,2010015,2011015,2011014
159,1010015,1010016,1011016,1011015,2010015,2010016,2011016,2011015
160,1010016,1010017,1011017,1011016,2010016,2010017,2011017,2011016
161,1011001,1011002,1012002,1012001,2011001,2011002,2012002,2012001
162,1011002,1011003,1012003,1012002,2011002,2011003,2012003,2012002
163,1011003,1011004,1012004,1012003,2011003,2011004,2012004,2012003
164,1011004,1011005,1012005,1012004,2011004,2011005,2012005,2012004
165,1011005,1011006,1012006,1012005,2011005,2011006,2012006,2012005
166,1011006,1011007,1012007,1012006,2011006,2011007,2012007,2012006
167,1011007,1011008,1012008,1012007,2011007,2011008,2012008,2012007
168,1011008,1011009,1012009,1012008,2011008,2011009,2012009,2012008
169,1011009,1011010,1012010,1012009,2011009,2011010,2012010,2012009
170,1011010,1011011,1012011,1012010,2011010,2011011,2012011,2012010
171,1011011,1011012,1012012,1012011,2011011,2011012,2012012,2012011
172,1011012,1011013,1012013,1012012,2011012,2011013,2012013,2012012
173,1011013,1011014,1012014,1012013,2011013,2011014,2012014,2012013
174,1011014,1011015,1012015,1012014,2011014,2011015,2012015,2012014
175,1011015,1011016,1012016,1012015,2011015,2011016,2012016,2012015
176,1011016,1011017,1012017,1012016,2011016,2011017,2012017,2012016
177,1012001,1012002,1013002,1013001,2012001,2012002,2013002,2013001
178,1012002,1012003,1013003,1013002,2012002,2012003,2013003,2013002
179,1012003,1012004,1013004,1013003,2012003,2012004,2013004,2013003
180,1012004,1012005,1013005,1013004,2012004,2012005,2013005,2013004
181,1012005,1012006,1013006,1013005,2012005,2012006,2013006,2013005
182,1012006,1012007,1013007,1013006,2012006,2012007,2013007,2013006
183,1012007,1012008,1013008,1013007,2012007,2012008,2013008,2013007
184,1012008,1012009,1013009,1013008,2012008,2012009,2013009,2013008
185,1012009,1012010,1013010,1013009,2012009,2012010,2013010,2013009
186,1012010,1012011,1013011,1013010,2012010,2012011,2013011,2013010
187,1012011,1012012,1013012,1013011,2012011,2012012,2013012,2013011
188,1012012,1012013,1013013,1013012,2012012,2012013,2013013,2013012
189,1012013,1012014,1013014,1013013,2012013,2012014,2013014,2013013
190,1012014,1012015,1013015,1013014,2012014,2012015,2013015,2013014
191,1012015,1012016,1013016,1013015,2012015,2012016,2013016,2013015
192,1012016,1012017,1013017,1013016,2012016,2012017,2013017,2013016
193,1013001,1013002,1014002,1014001,2013001,2013002,2014002,2014001
194,1013002,1013003,1014003,1014002,2013002,2013003,2014003,2014002
195,1013003,1013004,1014004,1014003,2013003,2013004,2014004,2014003
196,1013004,1013005,1014005,1014004,2013004,2013005,2014005,2014004
197,1013005,1013006,1014006,1014005,2013005,2013006,2014006,2014005
198,1013006,1013007,1014007,1014006,2013006,2013007,2014007,2014006
199,1013007,1013008,1014008,1014007,2013007,2013008,2014008,2014007
200,1013008,1013009,1014009,1014008,2013008,2013009,2014009,2014008
201,1013009,1013010,1014010,1014009,2013009,2013010,2014010,2014009
202,1013010,1013011,1014011,1014010,2013010,2013011,2014011,2014010
203,1013011,1013012,1014012,1014011,2013011,2013012,2014012,2014011
204,1013012,1013013,1014013,1014012,2013012,2013013,2014013,2014012
205,1013013,1013014,1014014,1014013,2013013,2013014,2014014,2014013
206,1013014,1013015,1014015,1014014,2013014,2013015,2014015,2014014
207,1013015,1013016,1014016,1014015,2013015,2013016,2014016,2014015
208,1013016,1013017,1014017,1014016,2013016,2013017,2014017,2014016
209,1014001,1014002,1015002,1015001,2014001,2014002,2015002,2015001
210,1014002,1014003,1015003,1015002,2014002,2014003,2015003,2015002
211,1014003,1014004,1015004,1015003,2014003,2014004,2015004,2015003
212,1014004,1014005,1015005,1015004,2014004,2014005,2015005,2015004
213,1014005,1014006,1015006,1015005,2014005,2014006,2015006,2015005
214,1014006,1014007,1015007,1015006,2014006,2014007,2015007,2015006
215,1014007,1014008,1015008,1015007,2014007,2014008,2015008,2015007
216,1014008,1014009,1015009,1015008,2014008,2014009,2015009,2015008
217,1014009,1014010,1015010,1015009,2014009,2014010,2015010,2015009
218,1014010,1014011,1015011,1015010,2014010,2014011,2015011,2015010
219,1014011,1014012,1015012,1015011,2014011,2014012,2015012,2015011
220,1014012,1014013,1015013,1015012,2014012,2014013,2015013,2015012
221,1014013,1014014,1015014,1015013,2014013,2014014,2015014,2015013
222,1014014,1014015,1015015,1015014,2014014,2014015,2015015,2015014
223,1014015,1014016,1015016,1015015,2014015,2014016,2015016,2015015
224,1014016,1014017,1015017,1015016,2014016,2014017,2015017,2015016
225,1015001,1015002,1016002,1016001,2015001,2015002,2016002,2016001
226,1015002,1015003,1016003,1016002,2015002,2015003,2016003,2016002
227,1015003,1015004,1016004,1016003,2015003,2015004,2016004,2016003
228,1015004,1015005,1016005,1016004,2015004,2015005,2016005,2016004
229,1015005,1015006,1016006,1016005,2015005,2015006,2016006,2016005
230,1015006,1015007,1016007,1016006,2015006,2015007,2016007,2016006
231,1015007,1015008,1016008,1016007,2015007,2015008,2016008,2016007
232,1015008,1015009,1016009,1016008,2015008,2015009,2016009,2016008
233,1015009,1015010,1016010,1016009,2015009,2015010,2016010,2016009
234,1015010,1015011,1016011,1016010,2015010,2015011,2016011,2016010
235,1015011,1015012,1016012,1016011,2015011,2015012,2016012,2016011
236,1015012,1015013,1016013,1016012,2015012,2015013,2016013,2016012
237,1015013,1015014,1016014,1016013,2015013,2015014,2016014,2016013
238,1015014,1015015,1016015,1016014,2015014,2015015,2016015,2016014
239,1015015,1015016,1016016,1016015,2015015,2015016,2016016,2016015
240,1015016,1015017,1016017,1016016,2015016,2015017,2016017,2016016
241,2000001,2000002,2001002,2001001,3000001,3000002,3001002,3001001
242,2000002,2000003,2001003,2001002,3000002,3000003,3001003,3001002
243,2000003,2000004,2001004,2001003,3000003,3000004,3001004,3001003
244,2000004,2000005,2001005,2001004,3000004,3000005,3001005,3001004
245,2000005,2000006,2001006,2001005,3000005,3000006,3001006,3001005
246,2000006,2000007,2001007,2001006,3000006,3000007,3001007,3001006
247,2000007,2000008,2001008,2001007,3000007,3000008,3001008,3001007
248,2000008,2000009,2001009,2001008,3000008,3000009,3001009,3001008
249,2000009,2000010,2001010,2001009,3000009,3000010,3001010,3001009
250,2000010,2000011,2001011,2001010,3000010,3000011,3001011,3001010
251,2000011,2000012,2001012,2001011,3000011,3000012,3001012,3001011
252,2000012,2000013,2001013,2001012,3000012,3000013,3001013,3001012
253,2000013,2000014,2001014,2001013,3000013,3000014,3001014,3001013
254,2000014,2000015,2001015,2001014,3000014,3000015,3001015,3001014
255,2000015,2000016,2001016,2001015,3000015,3000016,3001016,3001015
256,2000016,2000017,2001017,2001016,3000016,3000017,3001017,3001016
257,2001001,2001002,2002002,2002001,3001001,3001002,3002002,3002001
258,2001002,2001003,2002003,2002002,3001002,3001003,3002003,3002002
259,2001003,2001004,2002004,2002003,3001003,3001004,3002004,3002003
260,2001004,2001005,2002005,2002004,3001004,3001005,3002005,3002004
261,2001005,2001006,2002006,2002005,3001005,3001006,3002006,3002005
262,2001006,2001007,2002007,2002006,3001006,3001007,3002007,3002006
263,2001007,2001008,2002008,2002007,3001007,3001008,3002008,3002007
264,2001008,2001009,2002009,2002008,3001008,3001009,3002009,3002008
265,2001009,2001010,2002010,2002009,3001009,3001010,3002010,3002009
266,2001010,2001011,2002011,2002010,3001010,3001011,3002011,3002010
267,2001011,2001012,2002012,2002011,3001011,3001012,3002012,3002011
268,2001012,2001013,2002013,2002012,3001012,3001013,3002013,3002012
269,2001013,2001014,2002014,2002013,3001013,3001014,3002014,3002013
270,2001014,2001015,2002015,2002014,3001014,3001015,3002015,3002014
271,2001015,2001016,2002016,2002015,3001015,3001016,3002016,3002015
272,2001016,2001017,2002017,2002016,3001016,3001017,3002017,3002016
273,2002001,2002002,2003002,2003001,3002001,3002002,3003002,3003001
274,2002002,2002003,2003003,2003002,3002002,3002003,3003003,3003002
275,2002003,2002004,2003004,2003003,3002003,3002004,3003004,3003003
276,2002004,2002005,2003005,2003004,3002004,3002005,3003005,3003004
277,2002005,2002006,2003006,2003005,3002005,3002006,3003006,3003005
278,2002006,2002007,2003007,2003006,3002006,3002007,3003007,3003006
279,2002007,2002008,2003008,2003007,3002007,3002008,3003008,3003007
280,2002008,2002009,2003009,2003008,3002008,3002009,3003009,3003008
281,2002009,2002010,2003010,2003009,3002009,3002010,3003010,3003009
282,2002010,2002011,2003011,2003010,3002010,3002011,3003011,3003010
283,2002011,2002012,2003012,2003011,3002011,3002012,3003012,3003011
284,2002012,2002013,2003013,2003012,3002012,3002013,3003013,3003012
285,2002013,2002014,2003014,2003013,3002013,3002014,3003014,3003013
286,2002014,2002015,2003015,2003014,3002014,3002015,3003015,3003014
287,2002015,2002016,2003016,2003015,3002015,3002016,3003016,3003015
288,2002016,2002017,2003017,2003016,3002016,3002017,3003017,3003016
289,2003001,2003002,2004002,2004001,3003001,3003002,3004002,3004001
290,2003002,2003003,2004003,2004002,3003002,3003003,3004003,3004002
291,2003003,2003004,2004004,2004003,3003003,3003004,3004004,3004003
292,2003004,2003005,2004005,2004004,3003004,3003005,3004005,3004004
293,2003005,2003006,2004006,2004005,3003005,3003006,3004006,3004005
294,2003006,2003007,2004007,2004006,3003006,3003007,3004007,3004006
295,2003007,2003008,2004008,2004007,3003007,3003008,3004008,3004007
296,2003008,2003009,2004009,2004008,3003008,3003009,3004009,3004008
297,2003009,2003010,2004010,2004009,3003009,3003010,3004010,3004009
298,2003010,2003011,2004011,2004010,3003010,3003011,3004011,3004010
299,2003011,2003012,2004012,2004011,3003011,3003012,3004012,3004011
300,2003012,2003013,2004013,2004012,3003012,3003013,3004013,3004012
301,2003013,2003014,2004014,2004013,3003013,3003014,3004014,3004013
302,2003014,2003015,2004015,2004014,3003014,3003015,3004015,3004014
303,2003015,2003016,2004016,2004015,3003015,3003016,3004016,3004015
304,2003016,2003017,2004017,2004016,3003016,3003017,3004017,3004016
305,2004001,2004002,2005002,2005001,3004001,3004002,3005002,3005001
306,2004002,2004003,2005003,2005002,3004002,3004003,3005003,3005002
307,2004003,2004004,2005004,2005003,3004003,3004004,3005004,3005003
308,2004004,2004005,2005005,2005004,3004004,3004005,3005005,3005004
309,2004005,2004006,2005006,2005005,3004005,3004006,3005006,3005005
310,2004006,2004007,2005007,2005006,3004006,3004007,3005007,3005006
311,2004007,2004008,2005008,2005007,3004007,3004008,3005008,3005007
312,2004008,2004009,2005009,2005008,3004008,3004009,3005009,3005008
313,2004009,2004010,2005010,2005009,3004009,3004010,3005010,3005009
314,2004010,2004011,2005011,2005010,3004010,3004011,3005011,3005010
315,2004011,2004012,2005012,2005011,3004011,3004012,3005012,3005011
316,2004012,2004013,2005013,2005012,3004012,3004013,3005013,3005012
317,2004013,2004014,2005014,2005013,3004013,3004014,3005014,3005013
318,2004014,2004015,2005015,2005014,3004014,3004015,3005015,3005014
319,2004015,2004016,2005016,2005015,3004015,3004016,3005016,3005015
320,2004016,2004017,2005017,2005016,3004016,3004017,3005017,3005016
321,2005001,2005002,2006002,2006001,3005001,3005002,3006002,3006001
322,2005002,2005003,2006003,2006002,3005002,3005003,3006003,3006002
323,2005003,2005004,2006004,2006003,3005003,3005004,3006004,3006003
324,2005004,2005005,2006005,2006004,3005004,3005005,3006005,3006004
325,2005005,2005006,2006006,2006005,3005005,3005006,3006006,3006005
326,2005006,2005007,2006007,2006006,3005006,3005007,3006007,3006006
327,2005007,2005008,2006008,2006007,3005007,3005008,3006008,3006007
328,2005008,2005009,2006009,2006008,3005008,3005009,3006009,3006008
329,2005009,2005010,2006010,2006009,3005009,3005010,3006010,3006009
330,2005010,2005011,2006011,2006010,3005010,3005011,3006011,3006010
331,2005011,2005012,2006012,2006011,3005011,3005012,3006012,3006011
332,2005012,2005013,2006013,2006012,3005012,3005013,3006013,3006012
333,2005013,2005014,2006014,2006013,3005013,3005014,3006014,3006013
334,2005014,2005015,2006015,2006014,3005014,3005015,3006015,3006014
335,2005015,2005016,2006016,2006015,3005015,3005016,3006016,3006015
336,2005016,2005017,2006017,2006016,3005016,3005017,3006017,3006016
337,2006001,2006002,2007002,2007001,3006001,3006002,3007002,3007001
338,2006002,2006003,2007003,2007002,3006002,3006003,3007003,3007002
339,2006003,2006004,2007004,2007003,3006003,3006004,3007004,3007003
340,2006004,2006005,2007005,2007004,3006004,3006005,3007005,3007004
341,2006005,2006006,2007006,2007005,3006005,3006006,3007006,3007005
342,2006006,2006007,2007007,2007006,3006006,3006007,3007007,3007006
343,2006011,2006012,2007012,2007011,3006011,3006012,3007012,3007011
344,2006012,2006013,2007013,2007012,3006012,3006013,3007013,3007012
345,2006013,2006014,2007014,2007013,3006013,3006014,3007014,3007013
346,2006014,2006015,2007015,2007014,3006014,3006015,3007015,3007014
347,2006015,2006016,2007016,2007015,3006015,3006016,3007016,3007015
348,2006016,2006017,2007017,2007016,3006016,3006017,3007017,3007016
349,2007001,2007002,2008002,2008001,3007001,3007002,3008002,3008001
350,2007002,2007003,2008003,2008002,3007002,3007003,3008003,3008002
351,2007003,2007004,2008004,2008003,3007003,3007004,3008004,3008003
352,2007004,2007005,2008005,2008004,3007004,3007005,3008005,3008004
353,2007005,2007006,2008006,2008005,3007005,3007006,3008006,3008005
354,2007006,2007007,2008007,2008006,3007006,3007007,3008007,3008006
355,2007011,2007012,2008012,2008011,3007011,3007012,3008012,3008011
356,2007012,2007013,2008013,2008012,3007012,3007013,3008013,3008012
357,2007013,2007014,2008014,2008013,3007013,3007014,3008014,3008013
358,2007014,2007015,2008015,2008014,3007014,3007015,3008015,3008014
359,2007015,2007016,2008016,2008015,3007015,3007016,3008016,3008015
360,2007016,2007017,2008017,2008016,3007016,3007017,3008017,3008016
361,2008001,2008002,2009002,2009001,3008001,3008002,3009002,3009001
362,2008002,2008003,2009003,2009002,3008002,3008003,3009003,3009002
363,2008003,2008004,2009004,2009003,3008003,3008004,3009004,3009003
364,2008004,2008005,2009005,2009004,3008004,3008005,3009005,3009004
365,2008005,2008006,2009006,2009005,3008005,3008006,3009006,3009005
366,2008006,2008007,2009007,2009006,3008006,3008007,3009007,3009006
367,2008011,2008012,2009012,2009011,3008011,3008012,3009012,3009011
368,2008012,2008013,2009013,2009012,3008012,3008013,3009013,3009012
369,2008013,2008014,2009014,2009013,3008013,3008014,3009014,3009013
370,2008014,2008015,2009015,2009014,3008014,3008015,3009015,3009014
371,2008015,2008016,2009016,2009015,3008015,3008016,3009016,3009015
372,2008016,2008017,2009017,2009016,3008016,3008017,3009017,3009016
373,2009001,2009002,2010002,2010001,3009001,3009002,3010002,3010001
374,2009002,2009003,2010003,2010002,3009002,3009003,3010003,3010002
375,2009003,2009004,2010004,2010003,3009003,3009004,3010004,3010003
376,2009004,2009005,2010005,2010004,3009004,3009005,3010005,3010004
377,2009005,2009006,2010006,2010005,3009005,3009006,3010006,3010005
378,2009006,2009007,2010007,2010006,3009006,3009007,3010007,3010006
379,2009011,2009012,2010012,2010011,3009011,3009012,3010012,3010011
380,2009012,2009013,2010013,2010012,3009012,3009013,3010013,3010012
381,2009013,2009014,2010014,2010013,3009013,3009014,3010014,3010013
382,2009014,2009015,2010015,2010014,3009014,3009015,3010015,3010014
383,2009015,2009016,2010016,2010015,3009015,3009016,3010016,3010015
384,2009016,2009017,2010017,2010016,3009016,3009017,3010017,3010016
385,2010001,2010002,2011002,2011001,3010001,3010002,3011002,3011001
386,2010002,2010003,2011003,2011002,3010002,3010003,3011003,3011002
387,2010003,2010004,2011004,2011003,3010003,3010004,3011004,3011003
388,2010004,2010005,2011005,2011004,3010004,3010005,3011005,3011004
389,2010005,2010006,2011006,2011005,3010005,3010006,3011006,3011005
390,2010006,2010007,2011007,2011006,3010006,3010007,3011007,3011006
391,2010007,2010008,2011008,2011007,3010007,3010008,3011008,3011007
392,2010008,2010009,2011009,2011008,3010008,3010009,3011009,3011008
393,2010009,2010010,2011010,2011009,3010009,3010010,3011010,3011009
394,2010010,2010011,2011011,2011010,3010010,3010011,3011011,3011010
395,2010011,2010012,2011012,2011011,3010011,3010012,3011012,3011011
396,2010012,2010013,2011013,2011012,3010012,3010013,3011013,3011012
397,2010013,2010014,2011014,2011013,3010013,3010014,3011014,3011013
398,2010014,2010015,2011015,2011014,3010014,3010015,3011015,3011014
399,2010015,2010016,2011016,2011015,3010015,3010016,3011016,3011015
400,2010016,2010017,2011017,2011016,3010016,3010017,3011017,3011016
401,2011001,2011002,2012002,2012001,3011001,3011002,3012002,3012001
402,2011002,2011003,2012003,2012002,3011002,3011003,3012003,3012002
403,2011003,2011004,2012004,2012003,3011003,3011004,3012004,3012003
404,2011004,2011005,2012005,2012004,3011004,3011005,3012005,3012004
405,2011005,2011006,2012006,2012005,3011005,3011006,3012006,3012005
406,2011006,2011007,2012007,2012006,3011006,3011007,3012007,3012006
407,2011007,2011008,2012008,2012007,3011007,3011008,3012008,3012007
408,2011008,2011009,2012009,2012008,3011008,3011009,3012009,3012008
409,2011009,2011010,2012010,2012009,3011009,3011010,3012010,3012009
410,2011010,2011011,2012011,2012010,3011010,3011011,3012011,3012010
411,2011011,2011012,2012012,2012011,3011011,3011012,3012012,3012011
412,2011012,2011013,2012013,2012012,3011012,3011013,3012013,3012012
413,2011013,2011014,2012014,2012013,3011013,3011014,3012014,3012013
414,2011014,2011015,2012015,2012014,3011014,3011015,3012015,3012014
415,2011015,2011016,2012016,2012015,3011015,3011016,3012016,3012015
416,2011016,2011017,2012017,2012016,3011016,3011017,3012017,3012016
417,2012001,2012002,2013002,2013001,3012001,3012002,3013002,3013001
418,2012002,2012003,2013003,2013002,3012002,3012003,3013003,3013002
419,2012003,2012004,2013004,2013003,3012003,3012004,3013004,3013003
420,2012004,2012005,2013005,2013004,3012004,3012005,3013005,3013004
421,2012005,2012006,2013006,2013005,3012005,3012006,3013006,3013005
422,2012006,2012007,2013007,2013006,3012006,3012007,3013007,3013006
423,2012007,2012008,2013008,2013007,3012007,3012008,3013008,3013007
424,2012008,2012009,2013009,2013008,3012008,3012009,3013009,3013008
425,2012009,2012010,2013010,2013009,3012009,3012010,3013010,3013009
426,2012010,2012011,2013011,2013010,3012010,3012011,3013011,3013010
427,2012011,2012012,2013012,2013011,3012011,3012012,3013012,3013011
428,2012012,2012013,2013013,2013012,3012012,3012013,3013013,3013012
429,2012013,2012014,2013014,2013013,3012013,3012014,3013014,3013013
430,2012014,2012015,2013015,2013014,3012014,3012015,3013015,3013014
431,2012015,2012016,2013016,2013015,3012015,3012016,3013016,3013015
432,2012016,2012017,2013017,2013016,3012016,3012017,3013017,3013016
433,2013001,2013002,2014002,2014001,3013001,3013002,3014002,3014001
434,2013002,2013003,2014003,2014002,3013002,3013003,3014003,3014002
435,2013003,2013004,2014004,2014003,3013003,3013004,3014004,3014003
436,2013004,2013005,2014005,2014004,3013004,3013005,3014005,3014004
437,2013005,2013006,2014006,2014005,3013005,3013006,3014006,3014005
438,2013006,2013007,2014007,2014006,3013006,3013007,3014007,3014006
439,2013007,2013008,2014008,2014007,3013007,3013008,3014008,3014007
440,2013008,2013009,2014009,2014008,3013008,3013009,3014009,3014008
441,2013009,2013010,2014010,2014009,3013009,3013010,3014010,3014009
442,2013010,2013011,2014011,2014010,3013010,3013011,3014011,3014010
443,2013011,2013012,2014012,2014011,3013011,3013012,3014012,3014011
444,2013012,2013013,2014013,2014012,3013012,3013013,3014013,3014012
445,2013013,2013014,2014014,2014013,3013013,3013014,3014014,3014013
446,2013014,2013015,2014015,2014014,3013014,3013015,3014015,3014014
447,2013015,2013016,2014016,2014015,3013015,3013016,3014016,3014015
448,2013016,2013017,2014017,2014016,3013016,3013017,3014017,3014016
449,2014001,2014002,2015002,2015001,3014001,3014002,3015002,3015001
450,2014002,2014003,2015003,2015002,3014002,3014003,3015003,3015002
451,2014003,2014004,2015004,2015003,3014003,3014004,3015004,3015003
452,2014004,2014005,2015005,2015004,3014004,3014005,3015005,3015004
453,2014005,2014006,2015006,2015005,3014005,3014006,3015006,3015005
454,2014006,2014007,2015007,2015006,3014006,3014007,3015007,3015006
455,2014007,2014008,2015008,2015007,3014007,3014008,3015008,3015007
456,2014008,2014009,2015009,2015008,3014008,3014009,3015009,3015008
457,2014009,2014010,2015010,2015009,3014009,3014010,3015010,3015009
458,2014010,2014011,2015011,2015010,3014010,3014011,3015011,3015010
459,2014011,2014012,2015012,2015011,3014011,3014012,3015012,3015011
460,2014012,2014013,2015013,2015012,3014012,3014013,3015013,3015012
461,2014013,2014014,2015014,2015013,3014013,3014014,3015014,3015013
462,2014014,2014015,2015015,2015014,3014014,3014015,3015015,3015014
463,2014015,2014016,2015016,2015015,3014015,3014016,3015016,3015015
464,2014016,2014017,2015017,2015016,3014016,3014017,3015017,3015016
465,2015001,2015002,2016002,2016001,3015001,3015002,3016002,3016001
466,2015002,2015003,2016003,2016002,3015002,3015003,3016003,3016002
467,2015003,2015004,2016004,2016003,3015003,3015004,3016004,3016003
468,2015004,2015005,2016005,2016004,3015004,3015005,3016005,3016004
469,2015005,2015006,2016006,2016005,3015005,3015006,3016006,3016005
470,2015006,2015007,2016007,2016006,3015006,3015007,3016007,3016006
471,2015007,2015008,2016008,2016007,3015007,3015008,3016008,3016007
472,2015008,2015009,2016009,2016008,3015008,3015009,3016009,3016008
473,2015009,2015010,2016010,2016009,3015009,3015010,3016010,3016009
474,2015010,2015011,2016011,2016010,3015010,3015011,3016011,3016010
475,2015011,2015012,2016012,2016011,3015011,3015012,3016012,3016011
476,2015012,2015013,2016013,2016012,3015012,3015013,3016013,3016012
477,2015013,2015014,2016014,2016013,3015013,3015014,3016014,3016013
478,2015014,2015015,2016015,2016014,3015014,3015015,3016015,3016014
479,2015015,2015016,2016016,2016015,3015015,3015016,3016016,3016015
480,2015016,2015017,2016017,2016016,3015016,3015017,3016017,3016016
481,3000001,3000002,3001002,3001001,4000001,4000002,4001002,4001001
482,3000002,3000003,3001003,3001002,4000002,4000003,4001003,4001002
483,3000003,3000004,3001004,3001003,4000003,4000004,4001004,4001003
484,3000004,3000005,3001005,3001004,4000004,4000005,4001005,4001004
485,3000005,3000006,3001006,3001005,4000005,4000006,4001006,4001005
486,3000006,3000007,3001007,3001006,4000006,4000007,4001007,4001006
487,3000007,3000008,3001008,3001007,4000007,4000008,4001008,4001007
488,3000008,3000009,3001009,3001008,4000008,4000009,4001009,4001008
489,3000009,3000010,3001010,3001009,4000009,4000010,4001010,4001009
490,3000010,3000011,3001011,3001010,4000010,4000011,4001011,4001010
491,3000011,3000012,3001012,3001011,4000011,4000012,4001012,4001011
492,3000012,3000013,3001013,3001012,4000012,4000013,4001013,4001012
493,3000013,3000014,3001014,3001013,4000013,4000014,4001014,4001013
494,3000014,3000015,3001015,3001014,4000014,4000015,4001015,4001014
495,3000015,3000016,3001016,3001015,4000015,4000016,4001016,4001015
496,3000016,3000017,3001017,3001016,4000016,4000017,4001017,4001016
497,3001001,3001002,3002002,3002001,4001001,4001002,4002002,4002001
498,3001002,3001003,3002003,3002002,4001002,4001003,4002003,4002002
499,3001003,3001004,3002004,3002003,4001003,4001004,4002004,4002003
500,3001004,3001005,3002005,3002004,4001004,4001005,4002005,4002004
501,3001005,3001006,3002006,3002005,4001005,4001006,4002006,4002005
502,3001006,3001007,3002007,3002006,4001006,4001007,4002007,4002006
503,3001007,3001008,3002008,3002007,4001007,4001008,4002008,4002007
504,3001008,3001009,3002009,3002008,4001008,4001009,4002009,4002008
505,3001009,3001010,3002010,3002009,4001009,4001010,4002010,4002009
506,3001010,3001011,3002011,3002010,4001010,4001011,4002011,4002010
507,3001011,3001012,3002012,3002011,4001011,4001012,4002012,4002011
508,3001012,3001013,3002013,3002012,4001012,4001013,4002013,4002012
509,3001013,3001014,3002014,3002013,4001013,4001014,4002014,4002013
510,3001014,3001015,3002015,3002014,4001014,4001015,4002015,4002014
511,3001015,3001016,3002016,3002015,4001015,4001016,4002016,4002015
512,3001016,3001017,3002017,3002016,4001016,4001017,4002017,4002016
513,3002001,3002002,3003002,3003001,4002001,4002002,4003002,4003001
514,3002002,3002003,3003003,3003002,4002002,4002003,4003003,4003002
515,3002003,3002004,3003004,3003003,4002003,4002004,4003004,4003003
516,3002004,3002005,3003005,3003004,4002004,4002005,4003005,4003004
517,3002005,3002006,3003006,3003005,4002005,4002006,4003006,4003005
518,3002006,3002007,3003007,3003006,4002006,4002007,4003007,4003006
519,3002007,3002008,3003008,3003007,4002007,4002008,4003008,4003007
520,3002008,3002009,3003009,3003008,4002008,4002009,4003009,4003008
521,3002009,3002010,3003010,3003009,4002009,4002010,4003010,4003009
522,3002010,3002011,3003011,3003010,4002010,4002011,4003011,4003010
523,3002011,3002012,3003012,3003011,4002011,4002012,4003012,4003011
524,3002012,3002013,3003013,3003012,4002012,4002013,4003013,4003012
525,3002013,3002014,3003014,3003013,4002013,4002014,4003014,4003013
526,3002014,3002015,3003015,3003014,4002014,4002015,4003015,4003014
527,3002015,3002016,3003016,3003015,4002015,4002016,4003016,4003015
528,3002016,3002017,3003017,3003016,4002016,4002017,4003017,4003016
529,3003001,3003002,3004002,3004001,4003001,4003002,4004002,4004001
530,3003002,3003003,3004003,3004002,4003002,4003003,4004003,4004002
531,3003003,3003004,3004004,3004003,4003003,4003004,4004004,4004003
532,3003004,3003005,3004005,3004004,4003004,4003005,4004005,4004004
533,3003005,3003006,3004006,3004005,4003005,4003006,4004006,4004005
534,3003006,3003007,3004007,3004006,4003006,4003007,4004007,4004006
535,3003007,3003008,3004008,3004007,4003007,4003008,4004008,4004007
536,3003008,3003009,3004009,3004008,4003008,4003009,4004009,4004008
537,3003009,3003010,3004010,3004009,4003009,4003010,4004010,4004009
538,3003010,3003011,3004011,3004010,4003010,4003011,4004011,4004010
539,3003011,3003012,3004012,3004011,4003011,4003012,4004012,4004011
540,3003012,3003013,3004013,3004012,4003012,4003013,4004013,4004012
541,3003013,3003014,3004014,3004013,4003013,4003014,4004014,4004013
542,3003014,3003015,3004015,3004014,4003014,4003015,4004015,4004014
543,3003015,3003016,3004016,3004015,4003015,4003016,4004016,4004015
544,3003016,3003017,3004017,3004016,4003016,4003017,4004017,4004016
545,3004001,3004002,3005002,3005001,4004001,4004002,4005002,4005001
546,3004002,3004003,3005003,3005002,4004002,4004003,4005003,4005002
547,3004003,3004004,3005004,3005003,4004003,4004004,4005004,4005003
548,3004004,3004005,3005005,3005004,4004004,4004005,4005005,4005004
549,3004005,3004006,3005006,3005005,4004005,4004006,4005006,4005005
550,3004006,3004007,3005007,3005006,4004006,4004007,4005007,4005006
551,3004007,3004008,3005008,3005007,4004007,4004008,4005008,4005007
552,3004008,3004009,3005009,3005008,4004008,4004009,4005009,4005008
553,3004009,3004010,3005010,3005009,4004009,4004010,4005010,4005009
554,3004010,3004011,3005011,3005010,4004010,4004011,4005011,4005010
555,3004011,3004012,3005012,3005011,4004011,4004012,4005012,4005011
556,3004012,3004013,3005013,3005012,4004012,4004013,4005013,4005012
557,3004013,3004014,3005014,3005013,4004013,4004014,4005014,4005013
558,3004014,3004015,3005015,3005014,4004014,4004015,4005015,4005014
559,3004015,3004016,3005016,3005015,4004015,4004016,4005016,4005015
560,3004016,3004017,3005017,3005016,4004016,4004017,4005017,4005016
561,3005001,3005002,3006002,3006001,4005001,4005002,4006002,4006001
562,3005002,3005003,3006003,3006002,4005002,4005003,4006003,4006002
563,3005003,3005004,3006004,3006003,4005003,4005004,4006004,4006003
564,3005004,3005005,3006005,3006004,4005004,4005005,4006005,4006004
565,3005005,3005006,3006006,3006005,4005005,4005006,4006006,4006005
566,3005006,3005007,3006007,3006006,4005006,4005007,4006007,4006006
567,3005007,3005008,3006008,3006007,4005007,4005008,4006008,4006007
568,3005008,3005009,3006009,3006008,4005008,4005009,4006009,4006008
569,3005009,3005010,3006010,3006009,4005009,4005010,4006010,4006009
570,3005010,3005011,3006011,3006010,4005010,4005011,4006011,4006010
571,3005011,3005012,3006012,3006011,4005011,4005012,4006012,4006011
572,3005012,3005013,3006013,3006012,4005012,4005013,4006013,4006012
573,3005013,3005014,3006014,3006013,4005013,4005014,4006014,4006013
574,3005014,3005015,3006015,3006014,4005014,4005015,4006015,4006014
575,3005015,3005016,3006016,3006015,4005015,4005016,4006016,4006015
576,3005016,3005017,3006017,3006016,4005016,4005017,4006017,4006016
577,3006001,3006002,3007002,3007001,4006001,4006002,4007002,4007001
578,3006002,3006003,3007003,3007002,4006002,4006003,4007003,4007002
579,3006003,3006004,3007004,3007003,4006003,4006004,4007004,4007003
580,3006004,3006005,3007005,3007004,4006004,4006005,4007005,4007004
581,3006005,3006006,3007006,3007005,4006005,4006006,4007006,4007005
582,3006006,3006007,3007007,3007006,4006006,4006007,4007007,4007006
583,3006011,3006012,3007012,3007011,4006011,4006012,4007012,4007011
584,3006012,3006013,3007013,3007012,4006012,4006013,4007013,4007012
585,3006013,3006014,3007014,3007013,4006013,4006014,4007014,4007013
586,3006014,3006015,3007015,3007014,4006014,4006015,4007015,4007014
587,3006015,3006016,3007016,3007015,4006015,4006016,4007016,4007015
588,3006016,3006017,3007017,3007016,4006016,4006017,4007017,4007016
589,3007001,3007002,3008002,3008001,4007001,4007002,4008002,4008001
590,3007002,3007003,3008003,3008002,4007002,4007003,4008003,4008002
591,3007003,3007004,3008004,3008003,4007003,4007004,4008004,4008003
592,3007004,3007005,3008005,3008004,4007004,4007005,4008005,4008004
593,3007005,3007006,3008006,3008005,4007005,4007006,4008006,4008005
594,3007006,3007007,3008007,3008006,4007006,4007007,4008007,4008006
595,3007011,3007012,3008012,3008011,4007011,4007012,4008012,4008011
596,3007012,3007013,3008013,3008012,4007012,4007013,4008013,4008012
597,3007013,3007014,3008014,3008013,4007013,4007014,4008014,4008013
598,3007014,3007015,3008015,3008014,4007014,4007015,4008015,4008014
599,3007015,3007016,3008016,3008015,4007015,4007016,4008016,4008015
600,3007016,3007017,3008017,3008016,4007016,4007017,4008017,4008016
601,3008001,3008002,3009002,3009001,4008001,4008002,4009002,4009001
602,3008002,3008003,3009003,3009002,4008002,4008003,4009003,4009002
603,3008003,3008004,3009004,3009003,4008003,4008004,4009004,4009003
604,3008004,3008005,3009005,3009004,4008004,4008005,4009005,4009004
605,3008005,3008006,3009006,3009005,4008005,4008006,4009006,4009005
606,3008006,3008007,3009007,3009006,4008006,4008007,4009007,4009006
607,3008011,3008012,3009012,3009011,4008011,4008012,4009012,4009011
608,3008012,3008013,3009013,3009012,4008012,4008013,4009013,4009012
609,3008013,3008014,3009014,3009013,4008013,4008014,4009014,4009013
610,3008014,3008015,3009015,3009014,4008014,4008015,4009015,4009014
611,3008015,3008016,3009016,3009015,4008015,4008016,4009016,4009015
612,3008016,3008017,3009017,3009016,4008016,4008017,4009017,4009016
613,3009001,3009002,3010002,3010001,4009001,4009002,4010002,4010001
614,3009002,3009003,3010003,3010002,4009002,4009003,4010003,4010002
615,3009003,3009004,3010004,3010003,4009003,4009004,4010004,4010003
616,3009004,3009005,3010005,3010004,4009004,4009005,4010005,4010004
617,3009005,3009006,3010006,3010005,4009005,4009006,4010006,4010005
618,3009006,3009007,3010007,3010006,4009006,4009007,4010007,4010006
619,3009011,3009012,3010012,3010011,4009011,4009012,4010012,4010011
620,3009012,3009013,3010013,3010012,4009012,4009013,4010013,4010012
621,3009013,3009014,3010014,3010013,4009013,4009014,4010014,4010013
622,3009014,3009015,3010015,3010014,4009014,4009015,4010015,4010014
623,3009015,3009016,3010016,3010015,4009015,4009016,4010016,4010015
624,3009016,3009017,3010017,3010016,4009016,4009017,4010017,4010016
625,3010001,3010002,3011002,3011001,4010001,4010002,4011002,4011001
626,3010002,3010003,3011003,3011002,4010002,4010003,4011003,4011002
627,3010003,3010004,3011004,3011003,4010003,4010004,4011004,4011003
628,3010004,3010005,3011005,3011004,4010004,4010005,4011005,4011004
629,3010005,3010006,3011006,3011005,4010005,4010006,4011006,4011005
630,3010006,3010007,3011007,3011006,4010006,4010007,4011007,4011006
631,3010007,3010008,3011008,3011007,4010007,4010008,4011008,4011007
632,3010008,3010009,3011009,3011008,4010008,4010009,4011009,4011008
633,3010009,3010010,3011010,3011009,4010009,4010010,4011010,4011009
634,3010010,3010011,3011011,3011010,4010010,4010011,4011011,4011010
635,3010011,3010012,3011012,3011011,4010011,4010012,4011012,4011011
636,3010012,3010013,3011013,3011012,4010012,4010013,4011013,4011012
637,3010013,3010014,3011014,3011013,4010013,4010014,4011014,4011013
638,3010014,3010015,3011015,3011014,4010014,4010015,4011015,4011014
639,3010015,3010016,3011016,3011015,4010015,4010016,4011016,4011015
640,3010016,3010017,3011017,3011016,4010016,4010017,4011017,4011016
641,3011001,3011002,3012002,3012001,4011001,4011002,4012002,4012001
642,3011002,3011003,3012003,3012002,4011002,4011003,4012003,4012002
643,3011003,3011004,3012004,3012003,4011003,4011004,4012004,4012003
644,3011004,3011005,3012005,3012004,4011004,4011005,4012005,4012004
645,3011005,3011006,3012006,3012005,4011005,4011006,4012006,4012005
646,3011006,3011007,3012007,3012006,4011006,4011007,4012007,4012006
647,3011007,3011008,3012008,3012007,4011007,4011008,4012008,4012007
648,3011008,3011009,3012009,3012008,4011008,4011009,4012009,4012008
649,3011009,3011010,3012010,3012009,4011009,4011010,4012010,4012009
650,3011010,3011011,3012011,3012010,4011010,4011011,4012011,4012010
651,3011011,3011012,3012012,3012011,4011011,4011012,4012012,4012011
652,3011012,3011013,3012013,3012012,4011012,4011013,4012013,4012012
653,3011013,3011014,3012014,3012013,4011013,4011014,4012014,4012013
654,3011014,3011015,3012015,3012014,4011014,4011015,4012015,4012014
655,3011015,3011016,3012016,3012015,4011015,4011016,4012016,4012015
656,3011016,3011017,3012017,3012016,4011016,4011017,4012017,4012016
657,3012001,3012002,3013002,3013001,4012001,4012002,4013002,4013001
658,3012002,3012003,3013003,3013002,4012002,4012003,4013003,4013002
659,3012003,3012004,3013004,3013003,4012003,4012004,4013004,4013003
660,3012004,3012005,3013005,3013004,4012004,4012005,4013005,4013004
661,3012005,3012006,3013006,3013005,4012005,4012006,4013006,4013005
662,3012006,3012007,3013007,3013006,4012006,4012007,4013007,4013006
663,3012007,3012008,3013008,3013007,4012007,4012008,4013008,4013007
664,3012008,3012009,3013009,3013008,4012008,4012009,4013009,4013008
665,3012009,3012010,3013010,3013009,4012009,4012010,4013010,4013009
666,3012010,3012011,3013011,3013010,4012010,4012011,4013011,4013010
667,3012011,3012012,3013012,3013011,4012011,4012012,4013012,4013011
668,3012012,3012013,3013013,3013012,4012012,4012013,4013013,4013012
669,3012013,3012014,3013014,3013013,4012013,4012014,4013014,4013013
670,3012014,3012015,3013015,3013014,4012014,4012015,4013015,4013014
671,3012015,3012016,3013016,3013015,4012015,4012016,4013016,4013015
672,3012016,3012017,3013017,3013016,4012016,4012017,4013017,4013016
673,3013001,3013002,3014002,3014001,4013001,4013002,4014002,4014001
674,3013002,3013003,3014003,3014002,4013002,4013003,4014003,4014002
675,3013003,3013004,3014004,3014003,4013003,4013004,4014004,4014003
676,3013004,3013005,3014005,3014004,4013004,4013005,4014005,4014004
677,3013005,3013006,3014006,3014005,4013005,4013006,4014006,4014005
678,3013006,3013007,3014007,3014006,4013006,4013007,4014007,4014006
679,3013007,3013008,3014008,3014007,4013007,4013008,4014008,4014007
680,3013008,3013009,3014009,3014008,4013008,4013009,4014009,4014008
681,3013009,3013010,3014010,3014009,4013009,4013010,4014010,4014009
682,3013010,3013011,3014011,3014010,4013010,4013011,4014011,4014010
683,3013011,3013012,3014012,3014011,4013011,4013012,4014012,4014011
684,3013012,3013013,3014013,3014012,4013012,4013013,4014013,4014012
685,3013013,3013014,3014014,3014013,4013013,4013014,4014014,4014013
686,3013014,3013015,3014015,3014014,4013014,4013015,4014015,4014014
687,3013015,3013016,3014016,3014015,4013015,4013016,4014016,4014015
688,3013016,3013017,3014017,3014016,4013016,4013017,4014017,4014016
689,3014001,3014002,3015002,3015001,4014001,4014002,4015002,4015001
690,3014002,3014003,3015003,3015002,4014002,4014003,4015003,4015002
691,3014003,3014004,3015004,3015003,4014003,4014004,4015004,4015003
692,3014004,3014005,3015005,3015004,4014004,4014005,4015005,4015004
693,3014005,3014006,3015006,3015005,4014005,4014006,4015006,4015005
694,3014006,3014007,3015007,3015006,4014006,4014007,4015007,4015006
695,3014007,3014008,3015008,3015007,4014007,4014008,4015008,4015007
696,3014008,3014009,3015009,3015008,4014008,4014009,4015009,4015008
697,3014009,3014010,3015010,3015009,4014009,4014010,4015010,4015009
698,3014010,3014011,3015011,3015010,4014010,4014011,4015011,4015010
699,3014011,3014012,3015012,3015011,4014011,4014012,4015012,4015011
700,3014012,3014013,3015013,3015012,4014012,4014013,4015013,4015012
701,3014013,3014014,3015014,3015013,4014013,4014014,4015014,4015013
702,3014014,3014015,3015015,3015014,4014014,4014015,4015015,4015014
703,3014015,3014016,3015016,3015015,4014015,4014016,4015016,4015015
704,3014016,3014017,3015017,3015016,4014016,4014017,4015017,4015016
705,3015001,3015002,3016002,3016001,4015001,4015002,4016002,4016001
706,3015002,3015003,3016003,3016002,4015002,4015003,4016003,4016002
707,3015003,3015004,3016004,3016003,4015003,4015004,4016004,4016003
708,3015004,3015005,3016005,3016004,4015004,4015005,4016005,4016004
709,3015005,3015006,3016006,3016005,4015005,4015006,4016006,4016005
710,3015006,3015007,3016007,3016006,4015006,4015007,4016007,4016006
711,3015007,3015008,3016008,3016007,4015007,4015008,4016008,4016007
712,3015008,3015009,3016009,3016008,4015008,4015009,4016009,4016008
713,3015009,3015010,3016010,3016009,4015009,4015010,4016010,4016009
714,3015010,3015011,3016011,3016010,4015010,4015011,4016011,4016010
715,3015011,3015012,3016012,3016011,4015011,4015012,4016012,4016011
716,3015012,3015013,3016013,3016012,4015012,4015013,4016013,4016012
717,3015013,3015014,3016014,3016013,4015013,4015014,4016014,4016013
718,3015014,3015015,3016015,3016014,4015014,4015015,4016015,4016014
719,3015015,3015016,3016016,3016015,4015015,4015016,4016016,4016015
720,3015016,3015017,3016017,3016016,4015016,4015017,4016017,4016016
721,4000001,4000002,4001002,4001001,5000001,5000002,5001002,5001001
722,4000002,4000003,4001003,4001002,5000002,5000003,5001003,5001002
723,4000003,4000004,4001004,4001003,5000003,5000004,5001004,5001003
724,4000004,4000005,4001005,4001004,5000004,5000005,5001005,5001004
725,4000005,4000006,4001006,4001005,5000005,5000006,5001006,5001005
726,4000006,4000007,4001007,4001006,5000006,5000007,5001007,5001006
727,4000007,4000008,4001008,4001007,5000007,5000008,5001008,5001007
728,4000008,4000009,4001009,4001008,5000008,5000009,5001009,5001008
729,4000009,4000010,4001010,4001009,5000009,5000010,5001010,5001009
730,4000010,4000011,4001011,4001010,5000010,5000011,5001011,5001010
731,4000011,4000012,4001012,4001011,5000011,5000012,5001012,5001011
732,4000012,4000013,4001013,4001012,5000012,5000013,5001013,5001012
733,4000013,4000014,4001014,4001013,5000013,5000014,5001014,5001013
734,4000014,4000015,4001015,4001014,5000014,5000015,5001015,5001014
735,4000015,4000016,4001016,4001015,5000015,5000016,5001016,5001015
736,4000016,4000017,4001017,4001016,5000016,5000017,5001017,5001016
737,4001001,4001002,4002002,4002001,5001001,5001002,5002002,5002001
738,4001002,4001003,4002003,4002002,5001002,5001003,5002003,5002002
739,4001003,4001004,4002004,4002003,5001003,5001004,5002004,5002003
740,4001004,4001005,4002005,4002004,5001004,5001005,5002005,5002004
741,4001005,4001006,4002006,4002005,5001005,5001006,5002006,5002005
742,4001006,4001007,4002007,4002006,5001006,5001007,5002007,5002006
743,4001007,4001008,4002008,4002007,5001007,5001008,5002008,5002007
744,4001008,4001009,4002009,4002008,5001008,5001009,5002009,5002008
745,4001009,4001010,4002010,4002009,5001009,5001010,5002010,5002009
746,4001010,4001011,4002011,4002010,5001010,5001011,5002011,5002010
747,4001011,4001012,4002012,4002011,5001011,5001012,5002012,5002011
748,4001012,4001013,4002013,4002012,5001012,5001013,5002013,5002012
749,4001013,4001014,4002014,4002013,5001013,5001014,5002014,5002013
750,4001014,4001015,4002015,4002014,5001014,5001015,5002015,5002014
751,4001015,4001016,4002016,4002015,5001015,5001016,5002016,5002015
752,4001016,4001017,4002017,4002016,5001016,5001017,5002017,5002016
753,4002001,4002002,4003002,4003001,5002001,5002002,5003002,5003001
754,4002002,4002003,4003003,4003002,5002002,5002003,5003003,5003002
755,4002003,4002004,4003004,4003003,5002003,5002004,5003004,5003003
756,4002004,4002005,4003005,4003004,5002004,5002005,5003005,5003004
757,4002005,4002006,4003006,4003005,5002005,5002006,5003006,5003005
758,4002006,4002007,4003007,4003006,5002006,5002007,5003007,5003006
759,4002007,4002008,4003008,4003007,5002007,5002008,5003008,5003007
760,4002008,4002009,4003009,4003008,5002008,5002009,5003009,5003008
761,4002009,4002010,4003010,4003009,5002009,5002010,5003010,5003009
762,4002010,4002011,4003011,4003010,5002010,5002011,5003011,5003010
763,4002011,4002012,4003012,4003011,5002011,5002012,5003012,5003011
764,4002012,4002013,4003013,4003012,5002012,5002013,5003013,5003012
765,4002013,4002014,4003014,4003013,5002013,5002014,5003014,5003013
766,4002014,4002015,4003015,4003014,5002014,5002015,5003015,5003014
767,4002015,4002016,4003016,4003015,5002015,5002016,5003016,5003015
768,4002016,4002017,4003017,4003016,5002016,5002017,5003017,5003016
769,4003001,4003002,4004002,4004001,5003001,5003002,5004002,5004001
770,4003002,4003003,4004003,4004002,5003002,5003003,5004003,5004002
771,4003003,4003004,4004004,4004003,5003003,5003004,5004004,5004003
772,4003004,4003005,4004005,4004004,5003004,5003005,5004005,5004004
773,4003005,4003006,4004006,4004005,5003005,5003006,5004006,5004005
774,4003006,4003007,4004007,4004006,5003006,5003007,5004007,5004006
775,4003007,4003008,4004008,4004007,5003007,5003008,5004008,5004007
776,4003008,4003009,4004009,4004008,5003008,5003009,5004009,5004008
777,4003009,4003010,4004010,4004009,5003009,5003010,5004010,5004009
778,4003010,4003011,4004011,4004010,5003010,5003011,5004011,5004010
779,4003011,4003012,4004012,4004011,5003011,5003012,5004012,5004011
780,4003012,4003013,4004013,4004012,5003012,5003013,5004013,5004012
781,4003013,4003014,4004014,4004013,5003013,5003014,5004014,5004013
782,4003014,4003015,4004015,4004014,5003014,5003015,5004015,5004014
783,4003015,4003016,4004016,4004015,5003015,5003016,5004016,5004015
784,4003016,4003017,4004017,4004016,5003016,5003017,5004017,5004016
785,4004001,4004002,4005002,4005001,5004001,5004002,5005002,5005001
786,4004002,4004003,4005003,4005002,5004002,5004003,5005003,5005002
787,4004003,4004004,4005004,4005003,5004003,5004004,5005004,5005003
788,4004004,4004005,4005005,4005004,5004004,5004005,5005005,5005004
789,4004005,4004006,4005006,4005005,5004005,5004006,5005006,5005005
790,4004006,4004007,4005007,4005006,5004006,5004007,5005007,5005006
791,4004007,4004008,4005008,4005007,5004007,5004008,5005008,5005007
792,4004008,4004009,4005009,4005008,5004008,5004009,5005009,5005008
793,4004009,4004010,4005010,4005009,5004009,5004010,5005010,5005009
794,4004010,4004011,4005011,4005010,5004010,5004011,5005011,5005010
795,4004011,4004012,4005012,4005011,5004011,5004012,5005012,5005011
796,4004012,4004013,4005013,4005012,5004012,5004013,5005013,5005012
797,4004013,4004014,4005014,4005013,5004013,5004014,5005014,5005013
798,4004014,4004015,4005015,4005014,5004014,5004015,5005015,5005014
799,4004015,4004016,4005016,4005015,5004015,5004016,5005016,5005015
800,4004016,4004017,4005017,4005016,5004016,5004017,5005017,5005016
801,4005001,4005002,4006002,4006001,5005001,5005002,5006002,5006001
802,4005002,4005003,4006003,4006002,5005002,5005003,5006003,5006002
803,4005003,4005004,4006004,4006003,5005003,5005004,5006004,5006003
804,4005004,4005005,4006005,4006004,5005004,5005005,5006005,5006004
805,4005005,4005006,4006006,4006005,5005005,5005006,5006006,5006005
806,4005006,4005007,4006007,4006006,5005006,5005007,5006007,5006006
807,4005007,4005008,4006008,4006007,5005007,5005008,5006008,5006007
808,4005008,4005009,4006009,4006008,5005008,5005009,5006009,5006008
809,4005009,4005010,4006010,4006009,5005009,5005010,5006010,5006009
810,4005010,4005011,4006011,4006010,5005010,5005011,5006011,5006010
811,4005011,4005012,4006012,4006011,5005011,5005012,5006012,5006011
812,4005012,4005013,4006013,4006012,5005012,5005013,5006013,5006012
813,4005013,4005014,4006014,4006013,5005013,5005014,5006014,5006013
814,4005014,4005015,4006015,4006014,5005014,5005015,5006015,5006014
815,4005015,4005016,4006016,4006015,5005015,5005016,5006016,5006015
816,4005016,4005017,4006017,4006016,5005016,5005017,5006017,5006016
817,4006001,4006002,4007002,4007001,5006001,5006002,5007002,5007001
818,4006002,4006003,4007003,4007002,5006002,5006003,5007003,5007002
819,4006003,4006004,4007004,4007003,5006003,5006004,5007004,5007003
820,4006004,4006005,4007005,4007004,5006004,5006005,5007005,5007004
821,4006005,4006006,4007006,4007005,5006005,5006006,5007006,5007005
822,4006006,4006007,4007007,4007006,5006006,5006007,5007007,5007006
823,4006011,4006012,4007012,4007011,5006011,5006012,5007012,5007011
824,4006012,4006013,4007013,4007012,5006012,5006013,5007013,5007012
825,4006013,4006014,4007014,4007013,5006013,5006014,5007014,5007013
826,4006014,4006015,4007015,4007014,5006014,5006015,5007015,5007014
827,4006015,4006016,4007016,4007015,5006015,5006016,5007016,5007015
828,4006016,4006017,4007017,4007016,5006016,5006017,5007017,5007016
829,4007001,4007002,4008002,4008001,5007001,5007002,5008002,5008001
830,4007002,4007003,4008003,4008002,5007002,5007003,5008003,5008002
831,4007003,4007004,4008004,4008003,5007003,5007004,5008004,5008003
832,4007004,4007005,4008005,4008004,5007004,5007005,5008005,5008004
833,4007005,4007006,4008006,4008005,5007005,5007006,5008006,5008005
834,4007006,4007007,4008007,4008006,5007006,5007007,5008007,5008006
835,4007011,4007012,4008012,4008011,5007011,5007012,5008012,5008011
836,4007012,4007013,4008013,4008012,5007012,5007013,5008013,5008012
837,4007013,4007014,4008014,4008013,5007013,5007014,5008014,5008013
838,4007014,4007015,4008015,4008014,5007014,5007015,5008015,5008014
839,4007015,4007016,4008016,4008015,5007015,5007016,5008016,5008015
840,4007016,4007017,4008017,4008016,5007016,5007017,5008017,5008016
841,4008001,4008002,4009002,4009001,5008001,5008002,5009002,5009001
842,4008002,4008003,4009003,4009002,5008002,5008003,5009003,5009002
843,4008003,4008004,4009004,4009003,5008003,5008004,5009004,5009003
844,4008004,4008005,4009005,4009004,5008004,5008005,5009005,5009004
845,4008005,4008006,4009006,4009005,5008005,5008006,5009006,5009005
846,4008006,4008007,4009007,4009006,5008006,5008007,5009007,5009006
847,4008011,4008012,4009012,4009011,5008011,5008012,5009012,5009011
848,4008012,4008013,4009013,4009012,5008012,5008013,5009013,5009012
849,4008013,4008014,4009014,4009013,5008013,5008014,5009014,5009013
850,4008014,4008015,4009015,4009014,5008014,5008015,5009015,5009014
851,4008015,4008016,4009016,4009015,5008015,5008016,5009016,5009015
852,4008016,4008017,4009017,4009016,5008016,5008017,5009017,5009016
853,4009001,4009002,4010002,4010001,5009001,5009002,5010002,5010001
854,4009002,4009003,4010003,4010002,5009002,5009003,5010003,5010002
855,4009003,4009004,4010004,4010003,5009003,5009004,5010004,5010003
856,4009004,4009005,4010005,4010004,5009004,5009005,5010005,5010004
857,4009005,4009006,4010006,4010005,5009005,5009006,5010006,5010005
858,4009006,4009007,4010007,4010006,5009006,5009007,5010007,5010006
859,4009011,4009012,4010012,4010011,5009011,5009012,5010012,5010011
860,4009012,4009013,4010013,4010012,5009012,5009013,5010013,5010012
861,4009013,4009014,4010014,4010013,5009013,5009014,5010014,5010013
862,4009014,4009015,4010015,4010014,5009014,5009015,5010015,5010014
863,4009015,4009016,4010016,4010015,5009015,5009016,5010016,5010015
864,4009016,4009017,4010017,4010016,5009016,5009017,5010017,5010016
865,4010001,4010002,4011002,4011001,5010001,5010002,5011002,5011001
866,4010002,4010003,4011003,4011002,5010002,5010003,5011003,5011002
867,4010003,4010004,4011004,4011003,5010003,5010004,5011004,5011003
868,4010004,4010005,4011005,4011004,5010004,5010005,5011005,5011004
869,4010005,4010006,4011006,4011005,5010005,5010006,5011006,5011005
870,4010006,4010007,4011007,4011006,5010006,5010007,5011007,5011006
871,4010007,4010008,4011008,4011007,5010007,5010008,5011008,5011007
872,4010008,4010009,4011009,4011008,5010008,5010009,5011009,5011008
873,4010009,4010010,4011010,4011009,5010009,5010010,5011010,5011009
874,4010010,4010011,4011011,4011010,5010010,5010011,5011011,5011010
875,4010011,4010012,4011012,4011011,5010011,5010012,5011012,5011011
876,4010012,4010013,4011013,4011012,5010012,5010013,5011013,5011012
877,4010013,4010014,4011014,4011013,5010013,5010014,5011014,5011013
878,4010014,4010015,4011015,4011014,5010014,5010015,5011015,5011014
879,4010015,4010016,4011016,4011015,5010015,5010016,5011016,5011015
880,4010016,4010017,4011017,4011016,5010016,5010017,5011017,5011016
881,4011001,4011002,4012002,4012001,5011001,5011002,5012002,5012001
882,4011002,4011003,4012003,4012002,5011002,5011003,5012003,5012002
883,4011003,4011004,4012004,4012003,5011003,5011004,5012004,5012003
884,4011004,4011005,4012005,4012004,5011004,5011005,5012005,5012004
885,4011005,4011006,4012006,4012005,5011005,5011006,5012006,5012005
886,4011006,4011007,4012007,4012006,5011006,5011007,5012007,5012006
887,4011007,4011008,4012008,4012007,5011007,5011008,5012008,5012007
888,4011008,4011009,4012009,4012008,5011008,5011009,5012009,5012008
889,4011009,4011010,4012010,4012009,5011009,5011010,5012010,5012009
890,4011010,4011011,4012011,4012010,5011010,5011011,5012011,5012010
891,4011011,4011012,4012012,4012011,5011011,5011012,5012012,5012011
892,4011012,4011013,4012013,4012012,5011012,5011013,5012013,5012012
893,4011013,4011014,4012014,4012013,5011013,5011014,5012014,5012013
894,4011014,4011015,4012015,4012014,5011014,5011015,5012015,5012014
895,4011015,4011016,4012016,4012015,5011015,5011016,5012016,5012015
896,4011016,4011017,4012017,4012016,5011016,5011017,5012017,5012016
897,4012001,4012002,4013002,4013001,5012001,5012002,5013002,5013001
898,4012002,4012003,4013003,4013002,5012002,5012003,5013003,5013002
899,4012003,4012004,4013004,4013003,5012003,5012004,5013004,5013003
900,4012004,4012005,4013005,4013004,5012004,5012005,5013005,5013004
901,4012005,4012006,4013006,4013005,5012005,5012006,5013006,5013005
902,4012006,4012007,4013007,4013006,5012006,5012007,5013007,5013006
903,4012007,4012008,4013008,4013007,5012007,5012008,5013008,5013007
904,4012008,4012009,4013009,4013008,5012008,5012009,5013009,5013008
905,4012009,4012010,4013010,4013009,5012009,5012010,5013010,5013009
906,4012010,4012011,4013011,4013010,5012010,5012011,5013011,5013010
907,4012011,4012012,4013012,4013011,5012011,5012012,5013012,5013011
908,4012012,4012013,4013013,4013012,5012012,5012013,5013013,5013012
909,4012013,4012014,4013014,4013013,5012013,5012014,5013014,5013013
910,4012014,4012015,4013015,4013014,5012014,5012015,5013015,5013014
911,4012015,4012016,4013016,4013015,5012015,5012016,5013016,5013015
912,4012016,4012017,4013017,4013016,5012016,5012017,5013017,5013016
913,4013001,4013002,4014002,4014001,5013001,5013002,5014002,5014001
914,4013002,4013003,4014003,4014002,5013002,5013003,5014003,5014002
915,4013003,4013004,4014004,4014003,5013003,5013004,5014004,5014003
916,4013004,4013005,4014005,4014004,5013004,5013005,5014005,5014004
917,4013005,4013006,4014006,4014005,5013005,5013006,5014006,5014005
918,4013006,4013007,4014007,4014006,5013006,5013007,5014007,5014006
919,4013007,4013008,4014008,4014007,5013007,5013008,5014008,5014007
920,4013008,4013009,4014009,4014008,5013008,5013009,5014009,5014008
921,4013009,4013010,4014010,4014009,5013009,5013010,5014010,5014009
922,4013010,4013011,4014011,4014010,5013010,5013011,5014011,5014010
923,4013011,4013012,4014012,4014011,5013011,5013012,5014012,5014011
924,4013012,4013013,4014013,4014012,5013012,5013013,5014013,5014012
925,4013013,4013014,4014014,4014013,5013013,5013014,5014014,5014013
926,4013014,4013015,4014015,4014014,5013014,5013015,5014015,5014014
927,4013015,4013016,4014016,4014015,5013015,5013016,5014016,5014015
928,4013016,4013017,4014017,4014016,5013016,5013017,5014017,5014016
929,4014001,4014002,4015002,4015001,5014001,5014002,5015002,5015001
930,4014002,4014003,4015003,4015002,5014002,5014003,5015003,5015002
931,4014003,4014004,4015004,4015003,5014003,5014004,5015004,5015003
932,4014004,4014005,4015005,4015004,5014004,5014005,5015005,5015004
933,4014005,4014006,4015006,4015005,5014005,5014006,5015006,5015005
934,4014006,4014007,4015007,4015006,5014006,5014007,5015007,5015006
935,4014007,4014008,4015008,4015007,5014007,5014008,5015008,5015007
936,4014008,4014009,4015009,4015008,5014008,5014009,5015009,5015008
937,4014009,4014010,4015010,4015009,5014009,5014010,5015010,5015009
938,4014010,4014011,4015011,4015010,5014010,5014011,5015011,5015010
939,4014011,4014012,4015012,4015011,5014011,5014012,5015012,5015011
940,4014012,4014013,4015013,4015012,5014012,5014013,5015013,5015012
941,4014013,4014014,4015014,4015013,5014013,5014014,5015014,5015013
942,4014014,4014015,4015015,4015014,5014014,5014015,5015015,5015014
943,4014015,4014016,4015016,4015015,5014015,5014016,5015016,5015015
944,4014016,4014017,4015017,4015016,5014016,5014017,5015017,5015016
945,4015001,4015002,4016002,4016001,5015001,5015002,5016002,5016001
946,4015002,4015003,4016003,4016002,5015002,5015003,5016003,5016002
947,4015003,4015004,4016004,4016003,5015003,5015004,5016004,5016003
948,4015004,4015005,4016005,4016004,5015004,5015005,5016005,5016004
949,4015005,4015006,4016006,4016005,5015005,5015006,5016006,5016005
950,4015006,4015007,4016007,4016006,5015006,5015007,5016007,5016006
951,4015007,4015008,4016008,4016007,5015007,5015008,5016008,5016007
952,4015008,4015009,4016009,4016008,5015008,5015009,5016009,5016008
953,4015009,4015010,4016010,4016009,5015009,5015010,5016010,5016009
954,4015010,4015011,4016011,4016010,5015010,5015011,5016011,5016010
955,4015011,4015012,4016012,4016011,5015011,5015012,5016012,5016011
956,4015012,4015013,4016013,4016012,5015012,5015013,5016013,5016012
957,4015013,4015014,4016014,4016013,5015013,5015014,5016014,5016013
958,4015014,4015015,4016015,4016014,5015014,5015015,5016015,5016014
959,4015015,4015016,4016016,4016015,5015015,5015016,5016016,5016015
960,4015016,4015017,4016017,4016016,5015016,5015017,5016017,5016016
961,6000001,6000002,6001002,6001001,7000001,7000002,7001002,7001001
962,6000002,6000003,6001003,6001002,7000002,7000003,7001003,7001002
963,6000003,6000004,6001004,6001003,7000003,7000004,7001004,7001003
964,6000004,6000005,6001005,6001004,7000004,7000005,7001005,7001004
965,6000005,6000006,6001006,6001005,7000005,7000006,7001006,7001005
966,6000006,6000007,6001007,6001006,7000006,7000007,7001007,7001006
967,6000007,6000008,6001008,6001007,7000007,7000008,7001008,7001007
968,6000008,6000009,6001009,6001008,7000008,7000009,7001009,7001008
969,6000009,6000010,6001010,6001009,7000009,7000010,7001010,7001009
970,6000010,6000011,6001011,6001010,7000010,7000011,7001011,7001010
971,6000011,6000012,6001012,6001011,7000011,7000012,7001012,7001011
972,6000012,6000013,6001013,6001012,7000012,7000013,7001013,7001012
973,6000013,6000014,6001014,6001013,7000013,7000014,7001014,7001013
974,6000014,6000015,6001015,6001014,7000014,7000015,7001015,7001014
975,6000015,6000016,6001016,6001015,7000015,7000016,7001016,7001015
976,6000016,6000017,6001017,6001016,7000016,7000017,7001017,7001016
977,6001001,6001002,6002002,6002001,7001001,7001002,7002002,7002001
978,6001002,6001003,6002003,6002002,7001002,7001003,7002003,7002002
979,6001003,6001004,6002004,6002003,7001003,7001004,7002004,7002003
980,6001004,6001005,6002005,6002004,7001004,7001005,7002005,7002004
981,6001005,6001006,6002006,6002005,7001005,7001006,7002006,7002005
982,6001006,6001007,6002007,6002006,7001006,7001007,7002007,7002006
983,6001007,6001008,6002008,6002007,7001007,7001008,7002008,7002007
984,6001008,6001009,6002009,6002008,7001008,7001009,7002009,7002008
985,6001009,6001010,6002010,6002009,7001009,7001010,7002010,7002009
986,6001010,6001011,6002011,6002010,7001010,7001011,7002011,7002010
987,6001011,6001012,6002012,6002011,7001011,7001012,7002012,7002011
988,6001012,6001013,6002013,6002012,7001012,7001013,7002013,7002012
989,6001013,6001014,6002014,6002013,7001013,7001014,7002014,7002013
990,6001014,6001015,6002015,6002014,7001014,7001015,7002015,7002014
991,6001015,6001016,6002016,6002015,7001015,7001016,7002016,7002015
992,6001016,6001017,6002017,6002016,7001016,7001017,7002017,7002016
993,6002001,6002002,6003002,6003001,7002001,7002002,7003002,7003001
994,6002002,6002003,6003003,6003002,7002002,7002003,7003003,7003002
995,6002003,6002004,6003004,6003003,7002003,7002004,7003004,7003003
996,6002004,6002005,6003005,6003004,7002004,7002005,7003005,7003004
997,6002005,6002006,6003006,6003005,7002005,7002006,7003006,7003005
998,6002006,6002007,6003007,6003006,7002006,7002007,7003007,7003006
999,6002007,6002008,6003008,6003007,7002007,7002008,7003008,7003007
1000,6002008,6002009,6003009,6003008,7002008,7002009,7003009,7003008
1001,6002009,6002010,6003010,6003009,7002009,7002010,7003010,7003009
1002,6002010,6002011,6003011,6003010,7002010,7002011,7003011,7003010
1003,6002011,6002012,6003012,6003011,7002011,7002012,7003012,7003011
1004,6002012,6002013,6003013,6003012,7002012,7002013,7003013,7003012
1005,6002013,6002014,6003014,6003013,7002013,7002014,7003014,7003013
1006,6002014,6002015,6003015,6003014,7002014,7002015,7003015,7003014
1007,6002015,6002016,6003016,6003015,7002015,7002016,7003016,7003015
1008,6002016,6002017,6003017,6003016,7002016,7002017,7003017,7003016
1009,6003001,6003002,6004002,6004001,7003001,7003002,7004002,7004001
1010,6003002,6003003,6004003,6004002,7003002,7003003,7004003,7004002
1011,6003003,6003004,6004004,6004003,7003003,7003004,7004004,7004003
1012,6003004,6003005,6004005,6004004,7003004,7003005,7004005,7004004
1013,6003005,6003006,6004006,6004005,7003005,7003006,7004006,7004005
1014,6003012,6003013,6004013,6004012,7003012,7003013,7004013,7004012
1015,6003013,6003014,6004014,6004013,7003013,7003014,7004014,7004013
1016,6003014,6003015,6004015,6004014,7003014,7003015,7004015,7004014
1017,6003015,6003016,6004016,6004015,7003015,7003016,7004016,7004015
1018,6003016,6003017,6004017,6004016,7003016,7003017,7004017,7004016
1019,6004001,6004002,6005002,6005001,7004001,7004002,7005002,7005001
1020,6004002,6004003,6005003,6005002,7004002,7004003,7005003,7005002
1021,6004003,6004004,6005004,6005003,7004003,7004004,7005004,7005003
1022,6004004,6004005,6005005,6005004,7004004,7004005,7005005,7005004
1023,6004013,6004014,6005014,6005013,7004013,7004014,7005014,7005013
1024,6004014,6004015,6005015,6005014,7004014,7004015,7005015,7005014
1025,6004015,6004016,6005016,6005015,7004015,7004016,7005016,7005015
1026,6004016,6004017,6005017,6005016,7004016,7004017,7005017,7005016
1027,6005001,6005002,6006002,6006001,7005001,7005002,7006002,7006001
1028,6005002,6005003,6006003,6006002,7005002,7005003,7006003,7006002
1029,6005003,6005004,6006004,6006003,7005003,7005004,7006004,7006003
1030,6005014,6005015,6006015,6006014,7005014,7005015,7006015,7006014
1031,6005015,6005016,6006016,6006015,7005015,7005016,7006016,7006015
1032,6005016,6005017,6006017,6006016,7005016,7005017,7006017,7006016
1033,6006001,6006002,6007002,6007001,7006001,7006002,7007002,7007001
1034,6006002,6006003,6007003,6007002,7006002,7006003,7007003,7007002
1035,6006003,6006004,6007004,6007003,7006003,7006004,7007004,7007003
1036,6006014,6006015,6007015,6007014,7006014,7006015,7007015,7007014
1037,6006015,6006016,6007016,6007015,7006015,7006016,7007016,7007015
1038,6006016,6006017,6007017,6007016,7006016,7006017,7007017,7007016
1039,6007001,6007002,6008002,6008001,7007001,7007002,7008002,7008001
1040,6007002,6007003,6008003,6008002,7007002,7007003,7008003,7008002
1041,6007003,6007004,6008004,6008003,7007003,7007004,7008004,7008003
1042,6007014,6007015,6008015,6008014,7007014,7007015,7008015,7008014
1043,6007015,6007016,6008016,6008015,7007015,7007016,7008016,7008015
1044,6007016,6007017,6008017,6008016,7007016,7007017,7008017,7008016
1045,6008001,6008002,6009002,6009001,7008001,7008002,7009002,7009001
1046,6008002,6008003,6009003,6009002,7008002,7008003,7009003,7009002
1047,6008003,6008004,6009004,6009003,7008003,7008004,7009004,7009003
1048,6008014,6008015,6009015,6009014,7008014,7008015,7009015,7009014
1049,6008015,6008016,6009016,6009015,7008015,7008016,7009016,7009015
1050,6008016,6008017,6009017,6009016,7008016,7008017,7009017,7009016
1051,6009001,6009002,6010002,6010001,7009001,7009002,7010002,7010001
1052,6009002,6009003,6010003,6010002,7009002,7009003,7010003,7010002
1053,6009003,6009004,6010004,6010003,7009003,7009004,7010004,7010003
1054,6009014,6009015,6010015,6010014,7009014,7009015,7010015,7010014
1055,6009015,6009016,6010016,6010015,7009015,7009016,7010016,7010015
1056,6009016,6009017,6010017,6010016,7009016,7009017,7010017,7010016
1057,6010001,6010002,6011002,6011001,7010001,7010002,7011002,7011001
1058,6010002,6010003,6011003,6011002,7010002,7010003,7011003,7011002
1059,6010003,6010004,6011004,6011003,7010003,7010004,7011004,7011003
1060,6010014,6010015,6011015,6011014,7010014,7010015,7011015,7011014
1061,6010015,6010016,6011016,6011015,7010015,7010016,7011016,7011015
1062,6010016,6010017,6011017,6011016,7010016,7010017,7011017,7011016
1063,6011001,6011002,6012002,6012001,7011001,7011002,7012002,7012001
1064,6011002,6011003,6012003,6012002,7011002,7011003,7012003,7012002
1065,6011003,6011004,6012004,6012003,7011003,7011004,7012004,7012003
1066,6011004,6011005,6012005,6012004,7011004,7011005,7012005,7012004
1067,6011013,6011014,6012014,6012013,7011013,7011014,7012014,7012013
1068,6011014,6011015,6012015,6012014,7011014,7011015,7012015,7012014
1069,6011015,6011016,6012016,6012015,7011015,7011016,7012016,7012015
1070,6011016,6011017,6012017,6012016,7011016,7011017,7012017,7012016
1071,6012001,6012002,6013002,6013001,7012001,7012002,7013002,7013001
1072,6012002,6012003,6013003,6013002,7012002,7012003,7013003,7013002
1073,6012003,6012004,6013004,6013003,7012003,7012004,7013004,7013003
1074,6012004,6012005,6013005,6013004,7012004,7012005,7013005,7013004
1075,6012005,6012006,6013006,6013005,7012005,7012006,7013006,7013005
1076,6012012,6012013,6013013,6013012,7012012,7012013,7013013,7013012
1077,6012013,6012014,6013014,6013013,7012013,7012014,7013014,7013013
1078,6012014,6012015,6013015,6013014,7012014,7012015,7013015,7013014
1079,6012015,6012016,6013016,6013015,7012015,7012016,7013016,7013015
1080,6012016,6012017,6013017,6013016,7012016,7012017,7013017,7013016
1081,6013001,6013002,6014002,6014001,7013001,7013002,7014002,7014001
1082,6013002,6013003,6014003,6014002,7013002,7013003,7014003,7014002
1083,6013003,6013004,6014004,6014003,7013003,7013004,7014004,7014003
1084,6013004,6013005,6014005,6014004,7013004,7013005,7014005,7014004
1085,6013005,6013006,6014006,6014005,7013005,7013006,7014006,7014005
1086,6013006,6013007,6014007,6014006,7013006,7013007,7014007,7014006
1087,6013007,6013008,6014008,6014007,7013007,7013008,7014008,7014007
1088,6013008,6013009,6014009,6014008,7013008,7013009,7014009,7014008
1089,6013009,6013010,6014010,6014009,7013009,7013010,7014010,7014009
1090,6013010,6013011,6014011,6014010,7013010,7013011,7014011,7014010
1091,6013011,6013012,6014012,6014011,7013011,7013012,7014012,7014011
1092,6013012,6013013,6014013,6014012,7013012,7013013,7014013,7014012
1093,6013013,6013014,6014014,6014013,7013013,7013014,7014014,7014013
1094,6013014,6013015,6014015,6014014,7013014,7013015,7014015,7014014
1095,6013015,6013016,6014016,6014015,7013015,7013016,7014016,7014015
1096,6013016,6013017,6014017,6014016,7013016,7013017,7014017,7014016
1097,6014001,6014002,6015002,6015001,7014001,7014002,7015002,7015001
1098,6014002,6014003,6015003,6015002,7014002,7014003,7015003,7015002
1099,6014003,6014004,6015004,6015003,7014003,7014004,7015004,7015003
1100,6014004,6014005,6015005,6015004,7014004,7014005,7015005,7015004
1101,6014005,6014006,6015006,6015005,7014005,7014006,7015006,7015005
1102,6014006,6014007,6015007,6015006,7014006,7014007,7015007,7015006
1103,6014007,6014008,6015008,6015007,7014007,7014008,7015008,7015007
1104,6014008,6014009,6015009,6015008,7014008,7014009,7015009,7015008
1105,6014009,6014010,6015010,6015009,7014009,7014010,7015010,7015009
1106,6014010,6014011,6015011,6015010,7014010,7014011,7015011,7015010
1107,6014011,6014012,6015012,6015011,7014011,7014012,7015012,7015011
1108,6014012,6014013,6015013,6015012,7014012,7014013,7015013,7015012
1109,6014013,6014014,6015014,6015013,7014013,7014014,7015014,7015013
1110,6014014,6014015,6015015,6015014,7014014,7014015,7015015,7015014
1111,6014015,6014016,6015016,6015015,7014015,7014016,7015016,7015015
1112,6014016,6014017,6015017,6015016,7014016,7014017,7015017,7015016
1113,6015001,6015002,6016002,6016001,7015001,7015002,7016002,7016001
1114,6015002,6015003,6016003,6016002,7015002,7015003,7016003,7016002
1115,6015003,6015004,6016004,6016003,7015003,7015004,7016004,7016003
1116,6015004,6015005,6016005,6016004,7015004,7015005,7016005,7016004
1117,6015005,6015006,6016006,6016005,7015005,7015006,7016006,7016005
1118,6015006,6015007,6016007,6016006,7015006,7015007,7016007,7016006
1119,6015007,6015008,6016008,6016007,7015007,7015008,7016008,7016007
1120,6015008,6015009,6016009,6016008,7015008,7015009,7016009,7016008
1121,6015009,6015010,6016010,6016009,7015009,7015010,7016010,7016009
1122,6015010,6015011,6016011,6016010,7015010,7015011,7016011,7016010
1123,6015011,6015012,6016012,6016011,7015011,7015012,7016012,7016011
1124,6015012,6015013,6016013,6016012,7015012,7015013,7016013,7016012
1125,6015013,6015014,6016014,6016013,7015013,7015014,7016014,7016013
1126,6015014,6015015,6016015,6016014,7015014,7015015,7016015,7016014
1127,6015015,6015016,6016016,6016015,7015015,7015016,7016016,7016015
1128,6015016,6015017,6016017,6016016,7015016,7015017,7016017,7016016
1129,7000001,7000002,7001002,7001001,8000001,8000002,8001002,8001001
1130,7000002,7000003,7001003,7001002,8000002,8000003,8001003,8001002
1131,7000003,7000004,7001004,7001003,8000003,8000004,8001004,8001003
1132,7000004,7000005,7001005,7001004,8000004,8000005,8001005,8001004
1133,7000005,7000006,7001006,7001005,8000005,8000006,8001006,8001005
1134,7000006,7000007,7001007,7001006,8000006,8000007,8001007,8001006
1135,7000007,7000008,7001008,7001007,8000007,8000008,8001008,8001007
1136,7000008,7000009,7001009,7001008,8000008,8000009,8001009,8001008
1137,7000009,7000010,7001010,7001009,8000009,8000010,8001010,8001009
1138,7000010,7000011,7001011,7001010,8000010,8000011,8001011,8001010
1139,7000011,7000012,7001012,7001011,8000011,8000012,8001012,8001011
1140,7000012,7000013,7001013,7001012,8000012,8000013,8001013,8001012
1141,7000013,7000014,7001014,7001013,8000013,8000014,8001014,8001013
1142,7000014,7000015,7001015,7001014,8000014,8000015,8001015,8001014
1143,7000015,7000016,7001016,7001015,8000015,8000016,8001016,8001015
1144,7000016,7000017,7001017,7001016,8000016,8000017,8001017,8001016
1145,7001001,7001002,7002002,7002001,8001001,8001002,8002002,8002001
1146,7001002,7001003,7002003,7002002,8001002,8001003,8002003,8002002
1147,7001003,7001004,7002004,7002003,8001003,8001004,8002004,8002003
1148,7001004,7001005,7002005,7002004,8001004,8001005,8002005,8002004
1149,7001005,7001006,7002006,7002005,8001005,8001006,8002006,8002005
1150,7001006,7001007,7002007,7002006,8001006,8001007,8002007,8002006
1151,7001007,7001008,7002008,7002007,8001007,8001008,8002008,8002007
1152,7001008,7001009,7002009,7002008,8001008,8001009,8002009,8002008
1153,7001009,7001010,7002010,7002009,8001009,8001010,8002010,8002009
1154,7001010,7001011,7002011,7002010,8001010,8001011,8002011,8002010
1155,7001011,7001012,7002012,7002011,8001011,8001012,8002012,8002011
1156,7001012,7001013,7002013,7002012,8001012,8001013,8002013,8002012
1157,7001013,7001014,7002014,7002013,8001013,8001014,8002014,8002013
1158,7001014,7001015,7002015,7002014,8001014,8001015,8002015,8002014
1159,7001015,7001016,7002016,7002015,8001015,8001016,8002016,8002015
1160,7001016,7001017,7002017,7002016,8001016,8001017,8002017,8002016
1161,7002001,7002002,7003002,7003001,8002001,8002002,8003002,8003001
1162,7002002,7002003,7003003,7003002,8002002,8002003,8003003,8003002
1163,7002003,7002004,7003004,7003003,8002003,8002004,8003004,8003003
1164,7002004,7002005,7003005,7003004,8002004,8002005,8003005,8003004
1165,7002005,7002006,7003006,7003005,8002005,8002006,8003006,8003005
1166,7002006,7002007,7003007,7003006,8002006,8002007,8003007,8003006
1167,7002007,7002008,7003008,7003007,8002007,8002008,8003008,8003007
1168,7002008,7002009,7003009,7003008,8002008,8002009,8003009,8003008
1169,7002009,7002010,7003010,7003009,8002009,8002010,8003010,8003009
1170,7002010,7002011,7003011,7003010,8002010,8002011,8003011,8003010
1171,7002011,7002012,7003012,7003011,8002011,8002012,8003012,8003011
1172,7002012,7002013,7003013,7003012,8002012,8002013,8003013,8003012
1173,7002013,7002014,7003014,7003013,8002013,8002014,8003014,8003013
1174,7002014,7002015,7003015,7003014,8002014,8002015,8003015,8003014
1175,7002015,7002016,7003016,7003015,8002015,8002016,8003016,8003015
1176,7002016,7002017,7003017,7003016,8002016,8002017,8003017,8003016
1177,7003001,7003002,7004002,7004001,8003001,8003002,8004002,8004001
1178,7003002,7003003,7004003,7004002,8003002,8003003,8004003,8004002
1179,7003003,7003004,7004004,7004003,8003003,8003004,8004004,8004003
1180,7003004,7003005,7004005,7004004,8003004,8003005,8004005,8004004
1181,7003005,7003006,7004006,7004005,8003005,8003006,8004006,8004005
1182,7003012,7003013,7004013,7004012,8003012,8003013,8004013,8004012
1183,7003013,7003014,7004014,7004013,8003013,8003014,8004014,8004013
1184,7003014,7003015,7004015,7004014,8003014,8003015,8004015,8004014
1185,7003015,7003016,7004016,7004015,8003015,8003016,8004016,8004015
1186,7003016,7003017,7004017,7004016,8003016,8003017,8004017,8004016
1187,7004001,7004002,7005002,7005001,8004001,8004002,8005002,8005001
1188,7004002,7004003,7005003,7005002,8004002,8004003,8005003,8005002
1189,7004003,7004004,7005004,7005003,8004003,8004004,8005004,8005003
1190,7004004,7004005,7005005,7005004,8004004,8004005,8005005,8005004
1191,7004013,7004014,7005014,7005013,8004013,8004014,8005014,8005013
1192,7004014,7004015,7005015,7005014,8004014,8004015,8005015,8005014
1193,7004015,7004016,7005016,7005015,8004015,8004016,8005016,8005015
1194,7004016,7004017,7005017,7005016,8004016,8004017,8005017,8005016
1195,7005001,7005002,7006002,7006001,8005001,8005002,8006002,8006001
1196,7005002,7005003,7006003,7006002,8005002,8005003,8006003,8006002
1197,7005003,7005004,7006004,7006003,8005003,8005004,8006004,8006003
1198,7005014,7005015,7006015,7006014,8005014,8005015,8006015,8006014
1199,7005015,7005016,7006016,7006015,8005015,8005016,8006016,8006015
1200,7005016,7005017,7006017,7006016,8005016,8005017,8006017,8006016
1201,7006001,7006002,7007002,7007001,8006001,8006002,8007002,8007001
1202,7006002,7006003,7007003,7007002,8006002,8006003,8007003,8007002
1203,7006003,7006004,7007004,7007003,8006003,8006004,8007004,8007003
1204,7006014,7006015,7007015,7007014,8006014,8006015,8007015,8007014
1205,7006015,7006016,7007016,7007015,8006015,8006016,8007016,8007015
1206,7006016,7006017,7007017,7007016,8006016,8006017,8007017,8007016
1207,7007001,7007002,7008002,7008001,8007001,8007002,8008002,8008001
1208,7007002,7007003,7008003,7008002,8007002,8007003,8008003,8008002
1209,7007003,7007004,7008004,7008003,8007003,8007004,8008004,8008003
1210,7007014,7007015,7008015,7008014,8007014,8007015,8008015,8008014
1211,7007015,7007016,7008016,7008015,8007015,8007016,8008016,8008015
1212,7007016,7007017,7008017,7008016,8007016,8007017,8008017,8008016
1213,7008001,7008002,7009002,7009001,8008001,8008002,8009002,8009001
1214,7008002,7008003,7009003,7009002,8008002,8008003,8009003,8009002
1215,7008003,7008004,7009004,7009003,8008003,8008004,8009004,8009003
1216,7008014,7008015,7009015,7009014,8008014,8008015,8009015,8009014
1217,7008015,7008016,7009016,7009015,8008015,8008016,8009016,8009015
1218,7008016,7008017,7009017,7009016,8008016,8008017,8009017,8009016
1219,7009001,7009002,7010002,7010001,8009001,8009002,8010002,8010001
1220,7009002,7009003,7010003,7010002,8009002,8009003,8010003,8010002
1221,7009003,7009004,7010004,7010003,8009003,8009004,8010004,8010003
1222,7009014,7009015,7010015,7010014,8009014,8009015,8010015,8010014
1223,7009015,7009016,7010016,7010015,8009015,8009016,8010016,8010015
1224,7009016,7009017,7010017,7010016,8009016,8009017,8010017,8010016
1225,7010001,7010002,7011002,7011001,8010001,8010002,8011002,8011001
1226,7010002,7010003,7011003,7011002,8010002,8010003,8011003,8011002
1227,7010003,7010004,7011004,7011003,8010003,8010004,8011004,8011003
1228,7010014,7010015,7011015,7011014,8010014,8010015,8011015,8011014
1229,7010015,7010016,7011016,7011015,8010015,8010016,8011016,8011015
1230,7010016,7010017,7011017,7011016,8010016,8010017,8011017,8011016
1231,7011001,7011002,7012002,7012001,8011001,8011002,8012002,8012001
1232,7011002,7011003,7012003,7012002,8011002,8011003,8012003,8012002
1233,7011003,7011004,7012004,7012003,8011003,8011004,8012004,8012003
1234,7011004,7011005,7012005,7012004,8011004,8011005,8012005,8012004
1235,7011013,7011014,7012014,7012013,8011013,8011014,8012014,8012013
1236,7011014,7011015,7012015,7012014,8011014,8011015,8012015,8012014
1237,7011015,7011016,7012016,7012015,8011015,8011016,8012016,8012015
1238,7011016,7011017,7012017,7012016,8011016,8011017,8012017,8012016
1239,7012001,7012002,7013002,7013001,8012001,8012002,8013002,8013001
1240,7012002,7012003,7013003,7013002,8012002,8012003,8013003,8013002
1241,7012003,7012004,7013004,7013003,8012003,8012004,8013004,8013003
1242,7012004,7012005,7013005,7013004,8012004,8012005,8013005,8013004
1243,7012005,7012006,7013006,7013005,8012005,8012006,8013006,8013005
1244,7012012,7012013,7013013,7013012,8012012,8012013,8013013,8013012
1245,7012013,7012014,7013014,7013013,8012013,8012014,8013014,8013013
1246,7012014,7012015,7013015,7013014,8012014,8012015,8013015,8013014
1247,7012015,7012016,7013016,7013015,8012015,8012016,8013016,8013015
1248,7012016,7012017,7013017,7013016,8012016,8012017,8013017,8013016
1249,7013001,7013002,7014002,7014001,8013001,8013002,8014002,8014001
1250,7013002,7013003,7014003,7014002,8013002,8013003,8014003,8014002
1251,7013003,7013004,7014004,7014003,8013003,8013004,8014004,8014003
1252,7013004,7013005,7014005,7014004,8013004,8013005,8014005,8014004
1253,7013005,7013006,7014006,7014005,8013005,8013006,8014006,8014005
1254,7013006,7013007,7014007,7014006,8013006,8013007,8014007,8014006
1255,7013007,7013008,7014008,7014007,8013007,8013008,8014008,8014007
1256,7013008,7013009,7014009,7014008,8013008,8013009,8014009,8014008
1257,7013009,7013010,7014010,7014009,8013009,8013010,8014010,8014009
1258,7013010,7013011,7014011,7014010,8013010,8013011,8014011,8014010
1259,7013011,7013012,7014012,7014011,8013011,8013012,8014012,8014011
1260,7013012,7013013,7014013,7014012,8013012,8013013,8014013,8014012
1261,7013013,7013014,7014014,7014013,8013013,8013014,8014014,8014013
1262,7013014,7013015,7014015,7014014,8013014,8013015,8014015,8014014
1263,7013015,7013016,7014016,7014015,8013015,8013016,8014016,8014015
1264,7013016,7013017,7014017,7014016,8013016,8013017,8014017,8014016
1265,7014001,7014002,7015002,7015001,8014001,8014002,8015002,8015001
1266,7014002,7014003,7015003,7015002,8014002,8014003,8015003,8015002
1267,7014003,7014004,7015004,7015003,8014003,8014004,8015004,8015003
1268,7014004,7014005,7015005,7015004,8014004,8014005,8015005,8015004
1269,7014005,7014006,7015006,7015005,8014005,8014006,8015006,8015005
1270,7014006,7014007,7015007,7015006,8014006,8014007,8015007,8015006
1271,7014007,7014008,7015008,7015007,8014007,8014008,8015008,8015007
1272,7014008,7014009,7015009,7015008,8014008,8014009,8015009,8015008
1273,7014009,7014010,7015010,7015009,8014009,8014010,8015010,8015009
1274,7014010,7014011,7015011,7015010,8014010,8014011,8015011,8015010
1275,7014011,7014012,7015012,7015011,8014011,8014012,8015012,8015011
1276,7014012,7014013,7015013,7015012,8014012,8014013,8015013,8015012
1277,7014013,7014014,7015014,7015013,8014013,8014014,8015014,8015013
1278,7014014,7014015,7015015,7015014,8014014,8014015,8015015,8015014
1279,7014015,7014016,7015016,7015015,8014015,8014016,8015016,8015015
1280,7014016,7014017,7015017,7015016,8014016,8014017,8015017,8015016
1281,7015001,7015002,7016002,7016001,8015001,8015002,8016002,8016001
1282,7015002,7015003,7016003,7016002,8015002,8015003,8016003,8016002
1283,7015003,7015004,7016004,7016003,8015003,8015004,8016004,8016003
1284,7015004,7015005,7016005,7016004,8015004,8015005,8016005,8016004
1285,7015005,7015006,7016006,7016005,8015005,8015006,8016006,8016005
1286,7015006,7015007,7016007,7016006,8015006,8015007,8016007,8016006
1287,7015007,7015008,7016008,7016007,8015007,8015008,8016008,8016007
1288,7015008,7015009,7016009,7016008,8015008,8015009,8016009,8016008
1289,7015009,7015010,7016010,7016009,8015009,8015010,8016010,8016009
1290,7015010,7015011,7016011,7016010,8015010,8015011,8016011,8016010
1291,7015011,7015012,7016012,7016011,8015011,8015012,8016012,8016011
1292,7015012,7015013,7016013,7016012,8015012,8015013,8016013,8016012
1293,7015013,7015014,7016014,7016013,8015013,8015014,8016014,8016013
1294,7015014,7015015,7016015,7016014,8015014,8015015,8016015,8016014
1295,7015015,7015016,7016016,7016015,8015015,8015016,8016016,8016015
1296,7015016,7015017,7016017,7016016,8015016,8015017,8016017,8016016
1297,8000001,8000002,8001002,8001001,9000001,9000002,9001002,9001001
1298,8000002,8000003,8001003,8001002,9000002,9000003,9001003,9001002
1299,8000003,8000004,8001004,8001003,9000003,9000004,9001004,9001003
1300,8000004,8000005,8001005,8001004,9000004,9000005,9001005,9001004
1301,8000005,8000006,8001006,8001005,9000005,9000006,9001006,9001005
1302,8000006,8000007,8001007,8001006,9000006,9000007,9001007,9001006
1303,8000007,8000008,8001008,8001007,9000007,9000008,9001008,9001007
1304,8000008,8000009,8001009,8001008,9000008,9000009,9001009,9001008
1305,8000009,8000010,8001010,8001009,9000009,9000010,9001010,9001009
1306,8000010,8000011,8001011,8001010,9000010,9000011,9001011,9001010
1307,8000011,8000012,8001012,8001011,9000011,9000012,9001012,9001011
1308,8000012,8000013,8001013,8001012,9000012,9000013,9001013,9001012
1309,8000013,8000014,8001014,8001013,9000013,9000014,9001014,9001013
1310,8000014,8000015,8001015,8001014,9000014,9000015,9001015,9001014
1311,8000015,8000016,8001016,8001015,9000015,9000016,9001016,9001015
1312,8000016,8000017,8001017,8001016,9000016,9000017,9001017,9001016
1313,8001001,8001002,8002002,8002001,9001001,9001002,9002002,9002001
1314,8001002,8001003,8002003,8002002,9001002,9001003,9002003,9002002
1315,8001003,8001004,8002004,8002003,9001003,9001004,9002004,9002003
1316,8001004,8001005,8002005,8002004,9001004,9001005,9002005,9002004
1317,8001005,8001006,8002006,8002005,9001005,9001006,9002006,9002005
1318,8001006,8001007,8002007,8002006,9001006,9001007,9002007,9002006
1319,8001007,8001008,8002008,8002007,9001007,9001008,9002008,9002007
1320,8001008,8001009,8002009,8002008,9001008,9001009,9002009,9002008
1321,8001009,8001010,8002010,8002009,9001009,9001010,9002010,9002009
1322,8001010,8001011,8002011,8002010,9001010,9001011,9002011,9002010
1323,8001011,8001012,8002012,8002011,9001011,9001012,9002012,9002011
1324,8001012,8001013,8002013,8002012,9001012,9001013,9002013,9002012
1325,8001013,8001014,8002014,8002013,9001013,9001014,9002014,9002013
1326,8001014,8001015,8002015,8002014,9001014,9001015,9002015,9002014
1327,8001015,8001016,8002016,8002015,9001015,9001016,9002016,9002015
1328,8001016,8001017,8002017,8002016,9001016,9001017,9002017,9002016
1329,8002001,8002002,8003002,8003001,9002001,9002002,9003002,9003001
1330,8002002,8002003,8003003,8003002,9002002,9002003,9003003,9003002
1331,8002003,8002004,8003004,8003003,9002003,9002004,9003004,9003003
1332,8002004,8002005,8003005,8003004,9002004,9002005,9003005,9003004
1333,8002005,8002006,8003006,8003005,9002005,9002006,9003006,9003005
1334,8002006,8002007,8003007,8003006,9002006,9002007,9003007,9003006
1335,8002007,8002008,8003008,8003007,9002007,9002008,9003008,9003007
1336,8002008,8002009,8003009,8003008,9002008,9002009,9003009,9003008
1337,8002009,8002010,8003010,8003009,9002009,9002010,9003010,9003009
1338,8002010,8002011,8003011,8003010,9002010,9002011,9003011,9003010
1339,8002011,8002012,8003012,8003011,9002011,9002012,9003012,9003011
1340,8002012,8002013,8003013,8003012,9002012,9002013,9003013,9003012
1341,8002013,8002014,8003014,8003013,9002013,9002014,9003014,9003013
1342,8002014,8002015,8003015,8003014,9002014,9002015,9003015,9003014
1343,8002015,8002016,8003016,8003015,9002015,9002016,9003016,9003015
1344,8002016,8002017,8003017,8003016,9002016,9002017,9003017,9003016
1345,8003001,8003002,8004002,8004001,9003001,9003002,9004002,9004001
1346,8003002,8003003,8004003,8004002,9003002,9003003,9004003,9004002
1347,8003003,8003004,8004004,8004003,9003003,9003004,9004004,9004003
1348,8003004,8003005,8004005,8004004,9003004,9003005,9004005,9004004
1349,8003005,8003006,8004006,8004005,9003005,9003006,9004006,9004005
1350,8003012,8003013,8004013,8004012,9003012,9003013,9004013,9004012
1351,8003013,8003014,8004014,8004013,9003013,9003014,9004014,9004013
1352,8003014,8003015,8004015,8004014,9003014,9003015,9004015,9004014
1353,8003015,8003016,8004016,8004015,9003015,9003016,9004016,9004015
1354,8003016,8003017,8004017,8004016,9003016,9003017,9004017,9004016
1355,8004001,8004002,8005002,8005001,9004001,9004002,9005002,9005001
1356,8004002,8004003,8005003,8005002,9004002,9004003,9005003,9005002
1357,8004003,8004004,8005004,8005003,9004003,9004004,9005004,9005003
1358,8004004,8004005,8005005,8005004,9004004,9004005,9005005,9005004
1359,8004013,8004014,8005014,8005013,9004013,9004014,9005014,9005013
1360,8004014,8004015,8005015,8005014,9004014,9004015,9005015,9005014
1361,8004015,8004016,8005016,8005015,9004015,9004016,9005016,9005015
1362,8004016,8004017,8005017,8005016,9004016,9004017,9005017,9005016
1363,8005001,8005002,8006002,8006001,9005001,9005002,9006002,9006001
1364,8005002,8005003,8006003,8006002,9005002,9005003,9006003,9006002
1365,8005003,8005004,8006004,8006003,9005003,9005004,9006004,9006003
1366,8005014,8005015,8006015,8006014,9005014,9005015,9006015,9006014
1367,8005015,8005016,8006016,8006015,9005015,9005016,9006016,9006015
1368,8005016,8005017,8006017,8006016,9005016,9005017,9006017,9006016
1369,8006001,8006002,8007002,8007001,9006001,9006002,9007002,9007001
1370,8006002,8006003,8007003,8007002,9006002,9006003,9007003,9007002
1371,8006003,8006004,8007004,8007003,9006003,9006004,9007004,9007003
1372,8006014,8006015,8007015,8007014,9006014,9006015,9007015,9007014
1373,8006015,8006016,8007016,8007015,9006015,9006016,9007016,9007015
1374,8006016,8006017,8007017,8007016,9006016,9006017,9007017,9007016
1375,8007001,8007002,8008002,8008001,9007001,9007002,9008002,9008001
1376,8007002,8007003,8008003,8008002,9007002,9007003,9008003,9008002
1377,8007003,8007004,8008004,8008003,9007003,9007004,9008004,9008003
1378,8007014,8007015,8008015,8008014,9007014,9007015,9008015,9008014
1379,8007015,8007016,8008016,8008015,9007015,9007016,9008016,9008015
1380,8007016,8007017,8008017,8008016,9007016,9007017,9008017,9008016
1381,8008001,8008002,8009002,8009001,9008001,9008002,9009002,9009001
1382,8008002,8008003,8009003,8009002,9008002,9008003,9009003,9009002
1383,8008003,8008004,8009004,8009003,9008003,9008004,9009004,9009003
1384,8008014,8008015,8009015,8009014,9008014,9008015,9009015,9009014
1385,8008015,8008016,8009016,8009015,9008015,9008016,9009016,9009015
1386,8008016,8008017,8009017,8009016,9008016,9008017,9009017,9009016
1387,8009001,8009002,8010002,8010001,9009001,9009002,9010002,9010001
1388,8009002,8009003,8010003,8010002,9009002,9009003,9010003,9010002
1389,8009003,8009004,8010004,8010003,9009003,9009004,9010004,9010003
1390,8009014,8009015,8010015,8010014,9009014,9009015,9010015,9010014
1391,8009015,8009016,8010016,8010015,9009015,9009016,9010016,9010015
1392,8009016,8009017,8010017,8010016,9009016,9009017,9010017,9010016
1393,8010001,8010002,8011002,8011001,9010001,9010002,9011002,9011001
1394,8010002,8010003,8011003,8011002,9010002,9010003,9011003,9011002
1395,8010003,8010004,8011004,8011003,9010003,9010004,9011004,9011003
1396,8010014,8010015,8011015,8011014,9010014,9010015,9011015,9011014
1397,8010015,8010016,8011016,8011015,9010015,9010016,9011016,9011015
1398,8010016,8010017,8011017,8011016,9010016,9010017,9011017,9011016
1399,8011001,8011002,8012002,8012001,9011001,9011002,9012002,9012001
1400,8011002,8011003,8012003,8012002,9011002,9011003,9012003,9012002
1401,8011003,8011004,8012004,8012003,9011003,9011004,9012004,9012003
1402,8011004,8011005,8012005,8012004,9011004,9011005,9012005,9012004
1403,8011013,8011014,8012014,8012013,9011013,9011014,9012014,9012013
1404,8011014,8011015,8012015,8012014,9011014,9011015,9012015,9012014
1405,8011015,8011016,8012016,8012015,9011015,9011016,9012016,9012015
1406,8011016,8011017,8012017,8012016,9011016,9011017,9012017,9012016
1407,8012001,8012002,8013002,8013001,9012001,9012002,9013002,9013001
1408,8012002,8012003,8013003,8013002,9012002,9012003,9013003,9013002
1409,8012003,8012004,8013004,8013003,9012003,9012004,9013004,9013003
1410,8012004,8012005,8013005,8013004,9012004,9012005,9013005,9013004
1411,8012005,8012006,8013006,8013005,9012005,9012006,9013006,9013005
1412,8012012,8012013,8013013,8013012,9012012,9012013,9013013,9013012
1413,8012013,8012014,8013014,8013013,9012013,9012014,9013014,9013013
1414,8012014,8012015,8013015,8013014,9012014,9012015,9013015,9013014
1415,8012015,8012016,8013016,8013015,9012015,9012016,9013016,9013015
1416,8012016,8012017,8013017,8013016,9012016,9012017,9013017,9013016
1417,8013001,8013002,8014002,8014001,9013001,9013002,9014002,9014001
1418,8013002,8013003,8014003,8014002,9013002,9013003,9014003,9014002
1419,8013003,8013004,8014004,8014003,9013003,9013004,9014004,9014003
1420,8013004,8013005,8014005,8014004,9013004,9013005,9014005,9014004
1421,8013005,8013006,8014006,8014005,9013005,9013006,9014006,9014005
1422,8013006,8013007,8014007,8014006,9013006,9013007,9014007,9014006
1423,8013007,8013008,8014008,8014007,9013007,9013008,9014008,9014007
1424,8013008,8013009,8014009,8014008,9013008,9013009,9014009,9014008
1425,8013009,8013010,8014010,8014009,9013009,9013010,9014010,9014009
1426,8013010,8013011,8014011,8014010,9013010,9013011,9014011,9014010
1427,8013011,8013012,8014012,8014011,9013011,9013012,9014012,9014011
1428,8013012,8013013,8014013,8014012,9013012,9013013,9014013,9014012
1429,8013013,8013014,8014014,8014013,9013013,9013014,9014014,9014013
1430,8013014,8013015,8014015,8014014,9013014,9013015,9014015,9014014
1431,8013015,8013016,8014016,8014015,9013015,9013016,9014016,9014015
1432,8013016,8013017,8014017,8014016,9013016,9013017,9014017,9014016
1433,8014001,8014002,8015002,8015001,9014001,9014002,9015002,9015001
1434,8014002,8014003,8015003,8015002,9014002,9014003,9015003,9015002
1435,8014003,8014004,8015004,8015003,9014003,9014004,9015004,9015003
1436,8014004,8014005,8015005,8015004,9014004,9014005,9015005,9015004
1437,8014005,8014006,8015006,8015005,9014005,9014006,9015006,9015005
1438,8014006,8014007,8015007,8015006,9014006,9014007,9015007,9015006
1439,8014007,8014008,8015008,8015007,9014007,9014008,9015008,9015007
1440,8014008,8014009,8015009,8015008,9014008,9014009,9015009,9015008
1441,8014009,8014010,8015010,8015009,9014009,9014010,9015010,9015009
1442,8014010,8014011,8015011,8015010,9014010,9014011,9015011,9015010
1443,8014011,8014012,8015012,8015011,9014011,9014012,9015012,9015011
1444,8014012,8014013,8015013,8015012,9014012,9014013,9015013,9015012
1445,8014013,8014014,8015014,8015013,9014013,9014014,9015014,9015013
1446,8014014,8014015,8015015,8015014,9014014,9014015,9015015,9015014
1447,8014015,8014016,8015016,8015015,9014015,9014016,9015016,9015015
1448,8014016,8014017,8015017,8015016,9014016,9014017,9015017,9015016
1449,8015001,8015002,8016002,8016001,9015001,9015002,9016002,9016001
1450,8015002,8015003,8016003,8016002,9015002,9015003,9016003,9016002
1451,8015003,8015004,8016004,8016003,9015003,9015004,9016004,9016003
1452,8015004,8015005,8016005,8016004,9015004,9015005,9016005,9016004
1453,8015005,8015006,8016006,8016005,9015005,9015006,9016006,9016005
1454,8015006,8015007,8016007,8016006,9015006,9015007,9016007,9016006
1455,8015007,8015008,8016008,8016007,9015007,9015008,9016008,9016007
1456,8015008,8015009,8016009,8016008,9015008,9015009,9016009,9016008
1457,8015009,8015010,8016010,8016009,9015009,9015010,9016010,9016009
1458,8015010,8015011,8016011,8016010,9015010,9015011,9016011,9016010
1459,8015011,8015012,8016012,8016011,9015011,9015012,9016012,9016011
1460,8015012,8015013,8016013,8016012,9015012,9015013,9016013,9016012
1461,8015013,8015014,8016014,8016013,9015013,9015014,9016014,9016013
1462,8015014,8015015,8016015,8016014,9015014,9015015,9016015,9016014
1463,8015015,8015016,8016016,8016015,9015015,9015016,9016016,9016015
1464,8015016,8015017,8016017,8016016,9015016,9015017,9016017,9016016
1465,9000001,9000002,9001002,9001001,10000001,10000002,10001002,10001001
1466,9000002,9000003,9001003,9001002,10000002,10000003,10001003,10001002
1467,9000003,9000004,9001004,9001003,10000003,10000004,10001004,10001003
1468,9000004,9000005,9001005,9001004,10000004,10000005,10001005,10001004
1469,9000005,9000006,9001006,9001005,10000005,10000006,10001006,10001005
1470,9000006,9000007,9001007,9001006,10000006,10000007,10001007,10001006
1471,9000007,9000008,9001008,9001007,10000007,10000008,10001008,10001007
1472,9000008,9000009,9001009,9001008,10000008,10000009,10001009,10001008
1473,9000009,9000010,9001010,9001009,10000009,10000010,10001010,10001009
1474,9000010,9000011,9001011,9001010,10000010,10000011,10001011,10001010
1475,9000011,9000012,9001012,9001011,10000011,10000012,10001012,10001011
1476,9000012,9000013,9001013,9001012,10000012,10000013,10001013,10001012
1477,9000013,9000014,9001014,9001013,10000013,10000014,10001014,10001013
1478,9000014,9000015,9001015,9001014,10000014,10000015,10001015,10001014
1479,9000015,9000016,9001016,9001015,10000015,10000016,10001016,10001015
1480,9000016,9000017,9001017,9001016,10000016,10000017,10001017,10001016
1481,9001001,9001002,9002002,9002001,10001001,10001002,10002002,10002001
1482,9001002,9001003,9002003,9002002,10001002,10001003,10002003,10002002
1483,9001003,9001004,9002004,9002003,10001003,10001004,10002004,10002003
1484,9001004,9001005,9002005,9002004,10001004,10001005,10002005,10002004
1485,9001005,9001006,9002006,9002005,10001005,10001006,10002006,10002005
1486,9001006,9001007,9002007,9002006,10001006,10001007,10002007,10002006
1487,9001007,9001008,9002008,9002007,10001007,10001008,10002008,10002007
1488,9001008,9001009,9002009,9002008,10001008,10001009,10002009,10002008
1489,9001009,9001010,9002010,9002009,10001009,10001010,10002010,10002009
1490,9001010,9001011,9002011,9002010,10001010,10001011,10002011,10002010
1491,9001011,9001012,9002012,9002011,10001011,10001012,10002012,10002011
1492,9001012,9001013,9002013,9002012,10001012,10001013,10002013,10002012
1493,9001013,9001014,9002014,9002013,10001013,10001014,10002014,10002013
1494,9001014,9001015,9002015,9002014,10001014,10001015,10002015,10002014
1495,9001015,9001016,9002016,9002015,10001015,10001016,10002016,10002015
1496,9001016,9001017,9002017,9002016,10001016,10001017,10002017,10002016
1497,9002001,9002002,9003002,9003001,10002001,10002002,10003002,10003001
1498,9002002,9002003,9003003,9003002,10002002,10002003,10003003,10003002
1499,9002003,9002004,9003004,9003003,10002003,10002004,10003004,10003003
1500,9002004,9002005,9003005,9003004,10002004,10002005,10003005,10003004
1501,9002005,9002006,9003006,9003005,10002005,10002006,10003006,10003005
1502,9002006,9002007,9003007,9003006,10002006,10002007,10003007,10003006
1503,9002007,9002008,9003008,9003007,10002007,10002008,10003008,10003007
1504,9002008,9002009,9003009,9003008,10002008,10002009,10003009,10003008
1505,9002009,9002010,9003010,9003009,10002009,10002010,10003010,10003009
1506,9002010,9002011,9003011,9003010,10002010,10002011,10003011,10003010
1507,9002011,9002012,9003012,9003011,10002011,10002012,10003012,10003011
1508,9002012,9002013,9003013,9003012,10002012,10002013,10003013,10003012
1509,9002013,9002014,9003014,9003013,10002013,10002014,10003014,10003013
1510,9002014,9002015,9003015,9003014,10002014,10002015,10003015,10003014
1511,9002015,9002016,9003016,9003015,10002015,10002016,10003016,10003015
1512,9002016,9002017,9003017,9003016,10002016,10002017,10003017,10003016
1513,9003001,9003002,9004002,9004001,10003001,10003002,10004002,10004001
1514,9003002,9003003,9004003,9004002,10003002,10003003,10004003,10004002
1515,9003003,9003004,9004004,9004003,10003003,10003004,10004004,10004003
1516,9003004,9003005,9004005,9004004,10003004,10003005,10004005,10004004
1517,9003005,9003006,9004006,9004005,10003005,10003006,10004006,10004005
1518,9003012,9003013,9004013,9004012,10003012,10003013,10004013,10004012
1519,9003013,9003014,9004014,9004013,10003013,10003014,10004014,10004013
1520,9003014,9003015,9004015,9004014,10003014,10003015,10004015,10004014
1521,9003015,9003016,9004016,9004015,10003015,10003016,10004016,10004015
1522,9003016,9003017,9004017,9004016,10003016,10003017,10004017,10004016
1523,9004001,9004002,9005002,9005001,10004001,10004002,10005002,10005001
1524,9004002,9004003,9005003,9005002,10004002,10004003,10005003,10005002
1525,9004003,9004004,9005004,9005003,10004003,10004004,10005004,10005003
1526,9004004,9004005,9005005,9005004,10004004,10004005,10005005,10005004
1527,9004013,9004014,9005014,9005013,10004013,10004014,10005014,10005013
1528,9004014,9004015,9005015,9005014,10004014,10004015,10005015,10005014
1529,9004015,9004016,9005016,9005015,10004015,10004016,10005016,10005015
1530,9004016,9004017,9005017,9005016,10004016,10004017,10005017,10005016
1531,9005001,9005002,9006002,9006001,10005001,10005002,10006002,10006001
1532,9005002,9005003,9006003,9006002,10005002,10005003,10006003,10006002
1533,9005003,9005004,9006004,9006003,10005003,10005004,10006004,10006003
1534,9005014,9005015,9006015,9006014,10005014,10005015,10006015,10006014
1535,9005015,9005016,9006016,9006015,10005015,10005016,10006016,10006015
1536,9005016,9005017,9006017,9006016,10005016,10005017,10006017,10006016
1537,9006001,9006002,9007002,9007001,10006001,10006002,10007002,10007001
1538,9006002,9006003,9007003,9007002,10006002,10006003,10007003,10007002
1539,9006003,9006004,9007004,9007003,10006003,10006004,10007004,10007003
1540,9006014,9006015,9007015,9007014,10006014,10006015,10007015,10007014
1541,9006015,9006016,9007016,9007015,10006015,10006016,10007016,10007015
1542,9006016,9006017,9007017,9007016,10006016,10006017,10007017,10007016
1543,9007001,9007002,9008002,9008001,10007001,10007002,10008002,10008001
1544,9007002,9007003,9008003,9008002,10007002,10007003,10008003,10008002
1545,9007003,9007004,9008004,9008003,10007003,10007004,10008004,10008003
1546,9007014,9007015,9008015,9008014,10007014,10007015,10008015,10008014
1547,9007015,9007016,9008016,9008015,10007015,10007016,10008016,10008015
1548,9007016,9007017,9008017,9008016,10007016,10007017,10008017,10008016
1549,9008001,9008002,9009002,9009001,10008001,10008002,10009002,10009001
1550,9008002,9008003,9009003,9009002,10008002,10008003,10009003,10009002
1551,9008003,9008004,9009004,9009003,10008003,10008004,10009004,10009003
1552,9008014,9008015,9009015,9009014,10008014,10008015,10009015,10009014
1553,9008015,9008016,9009016,9009015,10008015,10008016,10009016,10009015
1554,9008016,9008017,9009017,9009016,10008016,10008017,10009017,10009016
1555,9009001,9009002,9010002,9010001,10009001,10009002,10010002,10010001
1556,9009002,9009003,9010003,9010002,10009002,10009003,10010003,10010002
1557,9009003,9009004,9010004,9010003,10009003,10009004,10010004,10010003
1558,9009014,9009015,9010015,9010014,10009014,10009015,10010015,10010014
1559,9009015,9009016,9010016,9010015,10009015,10009016,10010016,10010015
1560,9009016,9009017,9010017,9010016,10009016,10009017,10010017,10010016
1561,9010001,9010002,9011002,9011001,10010001,10010002,10011002,10011001
1562,9010002,9010003,9011003,9011002,10010002,10010003,10011003,10011002
1563,9010003,9010004,9011004,9011003,10010003,10010004,10011004,10011003
1564,9010014,9010015,9011015,9011014,10010014,10010015,10011015,10011014
1565,9010015,9010016,9011016,9011015,10010015,10010016,10011016,10011015
1566,9010016,9010017,9011017,9011016,10010016,10010017,10011017,10011016
1567,9011001,9011002,9012002,9012001,10011001,10011002,10012002,10012001
1568,9011002,9011003,9012003,9012002,10011002,10011003,10012003,10012002
1569,9011003,9011004,9012004,9012003,10011003,10011004,10012004,10012003
1570,9011004,9011005,9012005,9012004,10011004,10011005,10012005,10012004
1571,9011013,9011014,9012014,9012013,10011013,10011014,10012014,10012013
1572,9011014,9011015,9012015,9012014,10011014,10011015,10012015,10012014
1573,9011015,9011016,9012016,9012015,10011015,10011016,10012016,10012015
1574,9011016,9011017,9012017,9012016,10011016,10011017,10012017,10012016
1575,9012001,9012002,9013002,9013001,10012001,10012002,10013002,10013001
1576,9012002,9012003,9013003,9013002,10012002,10012003,10013003,10013002
1577,9012003,9012004,9013004,9013003,10012003,10012004,10013004,10013003
1578,9012004,9012005,9013005,9013004,10012004,10012005,10013005,10013004
1579,9012005,9012006,9013006,9013005,10012005,10012006,10013006,10013005
1580,9012012,9012013,9013013,9013012,10012012,10012013,10013013,10013012
1581,9012013,9012014,9013014,9013013,10012013,10012014,10013014,10013013
1582,9012014,9012015,9013015,9013014,10012014,10012015,10013015,10013014
1583,9012015,9012016,9013016,9013015,10012015,10012016,10013016,10013015
1584,9012016,9012017,9013017,9013016,10012016,10012017,10013017,10013016
1585,9013001,9013002,9014002,9014001,10013001,10013002,10014002,10014001
1586,9013002,9013003,9014003,9014002,10013002,10013003,10014003,10014002
1587,9013003,9013004,9014004,9014003,10013003,10013004,10014004,10014003
1588,9013004,9013005,9014005,9014004,10013004,10013005,10014005,10014004
1589,9013005,9013006,9014006,9014005,10013005,10013006,10014006,10014005
1590,9013006,9013007,9014007,9014006,10013006,10013007,10014007,10014006
1591,9013007,9013008,9014008,9014007,10013007,10013008,10014008,10014007
1592,9013008,9013009,9014009,9014008,10013008,10013009,10014009,10014008
1593,9013009,9013010,9014010,9014009,10013009,10013010,10014010,10014009
1594,9013010,9013011,9014011,9014010,10013010,10013011,10014011,10014010
1595,9013011,9013012,9014012,9014011,10013011,10013012,10014012,10014011
1596,9013012,9013013,9014013,9014012,10013012,10013013,10014013,10014012
1597,9013013,9013014,9014014,9014013,10013013,10013014,10014014,10014013
1598,9013014,9013015,9014015,9014014,10013014,10013015,10014015,10014014
1599,9013015,9013016,9014016,9014015,10013015,10013016,10014016,10014015
1600,9013016,9013017,9014017,9014016,10013016,10013017,10014017,10014016
1601,9014001,9014002,9015002,9015001,10014001,10014002,10015002,10015001
1602,9014002,9014003,9015003,9015002,10014002,10014003,10015003,10015002
1603,9014003,9014004,9015004,9015003,10014003,10014004,10015004,10015003
1604,9014004,9014005,9015005,9015004,10014004,10014005,10015005,10015004
1605,9014005,9014006,9015006,9015005,10014005,10014006,10015006,10015005
1606,9014006,9014007,9015007,9015006,10014006,10014007,10015007,10015006
1607,9014007,9014008,9015008,9015007,10014007,10014008,10015008,10015007
1608,9014008,9014009,9015009,9015008,10014008,10014009,10015009,10015008
1609,9014009,9014010,9015010,9015009,10014009,10014010,10015010,10015009
1610,9014010,9014011,9015011,9015010,10014010,10014011,10015011,10015010
1611,9014011,9014012,9015012,9015011,10014011,10014012,10015012,10015011
1612,9014012,9014013,9015013,9015012,10014012,10014013,10015013,10015012
1613,9014013,9014014,9015014,9015013,10014013,10014014,10015014,10015013
1614,9014014,9014015,9015015,9015014,10014014,10014015,10015015,10015014
1615,9014015,9014016,9015016,9015015,10014015,10014016,10015016,10015015
1616,9014016,9014017,9015017,9015016,10014016,10014017,10015017,10015016
1617,9015001,9015002,9016002,9016001,10015001,10015002,10016002,10016001
1618,9015002,9015003,9016003,9016002,10015002,10015003,10016003,10016002
1619,9015003,9015004,9016004,9016003,10015003,10015004,10016004,10016003
1620,9015004,9015005,9016005,9016004,10015004,10015005,10016005,10016004
1621,9015005,9015006,9016006,9016005,10015005,10015006,10016006,10016005
1622,9015006,9015007,9016007,9016006,10015006,10015007,10016007,10016006
1623,9015007,9015008,9016008,9016007,10015007,10015008,10016008,10016007
1624,9015008,9015009,9016009,9016008,10015008,10015009,10016009,10016008
1625,9015009,9015010,9016010,9016009,10015009,10015010,10016010,10016009
1626,9015010,9015011,9016011,9016010,10015010,10015011,10016011,10016010
1627,9015011,9015012,9016012,9016011,10015011,10015012,10016012,10016011
1628,9015012,9015013,9016013,9016012,10015012,10015013,10016013,10016012
1629,9015013,9015014,9016014,9016013,10015013,10015014,10016014,10016013
1630,9015014,9015015,9016015,9016014,10015014,10015015,10016015,10016014
1631,9015015,9015016,9016016,9016015,10015015,10015016,10016016,10016015
1632,9015016,9015017,9016017,9016016,10015016,10015017,10016017,10016016
1633,10000001,10000002,10001002,10001001,11000001,11000002,11001002,11001001
1634,10000002,10000003,10001003,10001002,11000002,11000003,11001003,11001002
1635,10000003,10000004,10001004,10001003,11000003,11000004,11001004,11001003
1636,10000004,10000005,10001005,10001004,11000004,11000005,11001005,11001004
1637,10000005,10000006,10001006,10001005,11000005,11000006,11001006,11001005
1638,10000006,10000007,10001007,10001006,11000006,11000007,11001007,11001006
1639,10000007,10000008,10001008,10001007,11000007,11000008,11001008,11001007
1640,10000008,10000009,10001009,10001008,11000008,11000009,11001009,11001008
1641,10000009,10000010,10001010,10001009,11000009,11000010,11001010,11001009
1642,10000010,10000011,10001011,10001010,11000010,11000011,11001011,11001010
1643,10000011,10000012,10001012,10001011,11000011,11000012,11001012,11001011
1644,10000012,10000013,10001013,10001012,11000012,11000013,11001013,11001012
1645,10000013,10000014,10001014,10001013,11000013,11000014,11001014,11001013
1646,10000014,10000015,10001015,10001014,11000014,11000015,11001015,11001014
1647,10000015,10000016,10001016,10001015,11000015,11000016,11001016,11001015
1648,10000016,10000017,10001017,10001016,11000016,11000017,11001017,11001016
1649,10001001,10001002,10002002,10002001,11001001,11001002,11002002,11002001
1650,10001002,10001003,10002003,10002002,11001002,11001003,11002003,11002002
1651,10001003,10001004,10002004,10002003,11001003,11001004,11002004,11002003
1652,10001004,10001005,10002005,10002004,11001004,11001005,11002005,11002004
1653,10001005,10001006,10002006,10002005,11001005,11001006,11002006,11002005
1654,10001006,10001007,10002007,10002006,11001006,11001007,11002007,11002006
1655,10001007,10001008,10002008,10002007,11001007,11001008,11002008,11002007
1656,10001008,10001009,10002009,10002008,11001008,11001009,11002009,11002008
1657,10001009,10001010,10002010,10002009,11001009,11001010,11002010,11002009
1658,10001010,10001011,10002011,10002010,11001010,11001011,11002011,11002010
1659,10001011,10001012,10002012,10002011,11001011,11001012,11002012,11002011
1660,10001012,10001013,10002013,10002012,11001012,11001013,11002013,11002012
1661,10001013,10001014,10002014,10002013,11001013,11001014,11002014,11002013
1662,10001014,10001015,10002015,10002014,11001014,11001015,11002015,11002014
1663,10001015,10001016,10002016,10002015,11001015,11001016,11002016,11002015
1664,10001016,10001017,10002017,10002016,11001016,11001017,11002017,11002016
1665,10002001,10002002,10003002,10003001,11002001,11002002,11003002,11003001
1666,10002002,10002003,10003003,10003002,11002002,11002003,11003003,11003002
1667,10002003,10002004,10003004,10003003,11002003,11002004,11003004,11003003
1668,10002004,10002005,10003005,10003004,11002004,11002005,11003005,11003004
1669,10002005,10002006,10003006,10003005,11002005,11002006,11003006,11003005
1670,10002006,10002007,10003007,10003006,11002006,11002007,11003007,11003006
1671,10002007,10002008,10003008,10003007,11002007,11002008,11003008,11003007
1672,10002008,10002009,10003009,10003008,11002008,11002009,11003009,11003008
1673,10002009,10002010,10003010,10003009,11002009,11002010,11003010,11003009
1674,10002010,10002011,10003011,10003010,11002010,11002011,11003011,11003010
1675,10002011,10002012,10003012,10003011,11002011,11002012,11003012,11003011
1676,10002012,10002013,10003013,10003012,11002012,11002013,11003013,11003012
1677,10002013,10002014,10003014,10003013,11002013,11002014,11003014,11003013
1678,10002014,10002015,10003015,10003014,11002014,11002015,11003015,11003014
1679,10002015,10002016,10003016,10003015,11002015,11002016,11003016,11003015
1680,10002016,10002017,10003017,10003016,11002016,11002017,11003017,11003016
1681,10003001,10003002,10004002,10004001,11003001,11003002,11004002,11004001
1682,10003002,10003003,10004003,10004002,11003002,11003003,11004003,11004002
1683,10003003,10003004,10004004,10004003,11003003,11003004,11004004,11004003
1684,10003004,10003005,10004005,10004004,11003004,11003005,11004005,11004004
1685,10003005,10003006,10004006,10004005,11003005,11003006,11004006,11004005
1686,10003006,10003007,10004007,10004006,11003006,11003007,11004007,11004006
1687,10003007,10003008,10004008,10004007,11003007,11003008,11004008,11004007
1688,10003008,10003009,10004009,10004008,11003008,11003009,11004009,11004008
1689,10003009,10003010,10004010,10004009,11003009,11003010,11004010,11004009
1690,10003010,10003011,10004011,10004010,11003010,11003011,11004011,11004010
1691,10003011,10003012,10004012,10004011,11003011,11003012,11004012,11004011
1692,10003012,10003013,10004013,10004012,11003012,11003013,11004013,11004012
1693,10003013,10003014,10004014,10004013,11003013,11003014,11004014,11004013
1694,10003014,10003015,10004015,10004014,11003014,11003015,11004015,11004014
1695,10003015,10003016,10004016,10004015,11003015,11003016,11004016,11004015
1696,10003016,10003017,10004017,10004016,11003016,11003017,11004017,11004016
1697,10004001,10004002,10005002,10005001,11004001,11004002,11005002,11005001
1698,10004002,10004003,10005003,10005002,11004002,11004003,11005003,11005002
1699,10004003,10004004,10005004,10005003,11004003,11004004,11005004,11005003
1700,10004004,10004005,10005005,10005004,11004004,11004005,11005005,11005004
1701,10004005,10004006,10005006,10005005,11004005,11004006,11005006,11005005
1702,10004006,10004007,10005007,10005006,11004006,11004007,11005007,11005006
1703,10004007,10004008,10005008,10005007,11004007,11004008,11005008,11005007
1704,10004008,10004009,10005009,10005008,11004008,11004009,11005009,11005008
1705,10004009,10004010,10005010,10005009,11004009,11004010,11005010,11005009
1706,10004010,10004011,10005011,10005010,11004010,11004011,11005011,11005010
1707,10004011,10004012,10005012,10005011,11004011,11004012,11005012,11005011
1708,10004012,10004013,10005013,10005012,11004012,11004013,11005013,11005012
1709,10004013,10004014,10005014,10005013,11004013,11004014,11005014,11005013
1710,10004014,10004015,10005015,10005014,11004014,11004015,11005015,11005014
1711,10004015,10004016,10005016,10005015,11004015,11004016,11005016,11005015
1712,10004016,10004017,10005017,10005016,11004016,11004017,11005017,11005016
1713,10005001,10005002,10006002,10006001,11005001,11005002,11006002,11006001
1714,10005002,10005003,10006003,10006002,11005002,11005003,11006003,11006002
1715,10005003,10005004,10006004,10006003,11005003,11005004,11006004,11006003
1716,10005004,10005005,10006005,10006004,11005004,11005005,11006005,11006004
1717,10005005,10005006,10006006,10006005,11005005,11005006,11006006,11006005
1718,10005006,10005007,10006007,10006006,11005006,11005007,11006007,11006006
1719,10005007,10005008,10006008,10006007,11005007,11005008,11006008,11006007
1720,10005008,10005009,10006009,10006008,11005008,11005009,11006009,11006008
1721,10005009,10005010,10006010,10006009,11005009,11005010,11006010,11006009
1722,10005010,10005011,10006011,10006010,11005010,11005011,11006011,11006010
1723,10005011,10005012,10006012,10006011,11005011,11005012,11006012,11006011
1724,10005012,10005013,10006013,10006012,11005012,11005013,11006013,11006012
1725,10005013,10005014,10006014,10006013,11005013,11005014,11006014,11006013
1726,10005014,10005015,10006015,10006014,11005014,11005015,11006015,11006014
1727,10005015,10005016,10006016,10006015,11005015,11005016,11006016,11006015
1728,10005016,10005017,10006017,10006016,11005016,11005017,11006017,11006016
1729,10006001,10006002,10007002,10007001,11006001,11006002,11007002,11007001
1730,10006002,10006003,10007003,10007002,11006002,11006003,11007003,11007002
1731,10006003,10006004,10007004,10007003,11006003,11006004,11007004,11007003
1732,10006004,10006005,10007005,10007004,11006004,11006005,11007005,11007004
1733,10006005,10006006,10007006,10007005,11006005,11006006,11007006,11007005
1734,10006006,10006007,10007007,10007006,11006006,11006007,11007007,11007006
1735,10006007,10006008,10007008,10007007,11006007,11006008,11007008,11007007
1736,10006008,10006009,10007009,10007008,11006008,11006009,11007009,11007008
1737,10006009,10006010,10007010,10007009,11006009,11006010,11007010,11007009
1738,10006010,10006011,10007011,10007010,11006010,11006011,11007011,11007010
1739,10006011,10006012,10007012,10007011,11006011,11006012,11007012,11007011
1740,10006012,10006013,10007013,10007012,11006012,11006013,11007013,11007012
1741,10006013,10006014,10007014,10007013,11006013,11006014,11007014,11007013
1742,10006014,10006015,10007015,10007014,11006014,11006015,11007015,11007014
1743,10006015,10006016,10007016,10007015,11006015,11006016,11007016,11007015
1744,10006016,10006017,10007017,10007016,11006016,11006017,11007017,11007016
1745,10007001,10007002,10008002,10008001,11007001,11007002,11008002,11008001
1746,10007002,10007003,10008003,10008002,11007002,11007003,11008003,11008002
1747,10007003,10007004,10008004,10008003,11007003,11007004,11008004,11008003
1748,10007004,10007005,10008005,10008004,11007004,11007005,11008005,11008004
1749,10007005,10007006,10008006,10008005,11007005,11007006,11008006,11008005
1750,10007006,10007007,10008007,10008006,11007006,11007007,11008007,11008006
1751,10007007,10007008,10008008,10008007,11007007,11007008,11008008,11008007
1752,10007008,10007009,10008009,10008008,11007008,11007009,11008009,11008008
1753,10007009,10007010,10008010,10008009,11007009,11007010,11008010,11008009
1754,10007010,10007011,10008011,10008010,11007010,11007011,11008011,11008010
1755,10007011,10007012,10008012,10008011,11007011,11007012,11008012,11008011
1756,10007012,10007013,10008013,10008012,11007012,11007013,11008013,11008012
1757,10007013,10007014,10008014,10008013,11007013,11007014,11008014,11008013
1758,10007014,10007015,10008015,10008014,11007014,11007015,11008015,11008014
1759,10007015,10007016,10008016,10008015,11007015,11007016,11008016,11008015
1760,10007016,10007017,10008017,10008016,11007016,11007017,11008017,11008016
1761,10008001,10008002,10009002,10009001,11008001,11008002,11009002,11009001
1762,10008002,10008003,10009003,10009002,11008002,11008003,11009003,11009002
1763,10008003,10008004,10009004,10009003,11008003,11008004,11009004,11009003
1764,10008004,10008005,10009005,10009004,11008004,11008005,11009005,11009004
1765,10008005,10008006,10009006,10009005,11008005,11008006,11009006,11009005
1766,10008006,10008007,10009007,10009006,11008006,11008007,11009007,11009006
1767,10008007,10008008,10009008,10009007,11008007,11008008,11009008,11009007
1768,10008008,10008009,10009009,10009008,11008008,11008009,11009009,11009008
1769,10008009,10008010,10009010,10009009,11008009,11008010,11009010,11009009
1770,10008010,10008011,10009011,10009010,11008010,11008011,11009011,11009010
1771,10008011,10008012,10009012,10009011,11008011,11008012,11009012,11009011
1772,10008012,10008013,10009013,10009012,11008012,11008013,11009013,11009012
1773,10008013,10008014,10009014,10009013,11008013,11008014,11009014,11009013
1774,10008014,10008015,10009015,10009014,11008014,11008015,11009015,11009014
1775,10008015,10008016,10009016,10009015,11008015,11008016,11009016,11009015
1776,10008016,10008017,10009017,10009016,11008016,11008017,11009017,11009016
1777,10009001,10009002,10010002,10010001,11009001,11009002,11010002,11010001
1778,10009002,10009003,10010003,10010002,11009002,11009003,11010003,11010002
1779,10009003,10009004,10010004,10010003,11009003,11009004,11010004,11010003
1780,10009004,10009005,10010005,10010004,11009004,11009005,11010005,11010004
1781,10009005,10009006,10010006,10010005,11009005,11009006,11010006,11010005
1782,10009006,10009007,10010007,10010006,11009006,11009007,11010007,11010006
1783,10009007,10009008,10010008,10010007,11009007,11009008,11010008,11010007
1784,10009008,10009009,10010009,10010008,11009008,11009009,11010009,11010008
1785,10009009,10009010,10010010,10010009,11009009,11009010,11010010,11010009
1786,10009010,10009011,10010011,10010010,11009010,11009011,11010011,11010010
1787,10009011,10009012,10010012,10010011,11009011,11009012,11010012,11010011
1788,10009012,10009013,10010013,10010012,11009012,11009013,11010013,11010012
1789,10009013,10009014,10010014,10010013,11009013,11009014,11010014,11010013
1790,10009014,10009015,10010015,10010014,11009014,11009015,11010015,11010014
1791,10009015,10009016,10010016,10010015,11009015,11009016,11010016,11010015
1792,10009016,10009017,10010017,10010016,11009016,11009017,11010017,11010016
1793,10010001,10010002,10011002,10011001,11010001,11010002,11011002,11011001
1794,10010002,10010003,10011003,10011002,11010002,11010003,11011003,11011002
1795,10010003,10010004,10011004,10011003,11010003,11010004,11011004,11011003
1796,10010004,10010005,10011005,10011004,11010004,11010005,11011005,11011004
1797,10010005,10010006,10011006,10011005,11010005,11010006,11011006,11011005
1798,10010006,10010007,10011007,10011006,11010006,11010007,11011007,11011006
1799,10010007,10010008,10011008,10011007,11010007,11010008,11011008,11011007
1800,10010008,10010009,10011009,10011008,11010008,11010009,11011009,11011008
1801,10010009,10010010,10011010,10011009,11010009,11010010,11011010,11011009
1802,10010010,10010011,10011011,10011010,11010010,11010011,11011011,11011010
1803,10010011,10010012,10011012,10011011,11010011,11010012,11011012,11011011
1804,10010012,10010013,10011013,10011012,11010012,11010013,11011013,11011012
1805,10010013,10010014,10011014,10011013,11010013,11010014,11011014,11011013
1806,10010014,10010015,10011015,10011014,11010014,11010015,11011015,11011014
1807,10010015,10010016,10011016,10011015,11010015,11010016,11011016,11011015
1808,10010016,10010017,10011017,10011016,11010016,11010017,11011017,11011016
1809,10011001,10011002,10012002,10012001,11011001,11011002,11012002,11012001
1810,10011002,10011003,10012003,10012002,11011002,11011003,11012003,11012002
1811,10011003,10011004,10012004,10012003,11011003,11011004,11012004,11012003
1812,10011004,10011005,10012005,10012004,11011004,11011005,11012005,11012004
1813,10011005,10011006,10012006,10012005,11011005,11011006,11012006,11012005
1814,10011006,10011007,10012007,10012006,11011006,11011007,11012007,11012006
1815,10011007,10011008,10012008,10012007,11011007,11011008,11012008,11012007
1816,10011008,10011009,10012009,10012008,11011008,11011009,11012009,11012008
1817,10011009,10011010,10012010,10012009,11011009,11011010,11012010,11012009
1818,10011010,10011011,10012011,10012010,11011010,11011011,11012011,11012010
1819,10011011,10011012,10012012,10012011,11011011,11011012,11012012,11012011
1820,10011012,10011013,10012013,10012012,11011012,11011013,11012013,11012012
1821,10011013,10011014,10012014,10012013,11011013,11011014,11012014,11012013
1822,10011014,10011015,10012015,10012014,11011014,11011015,11012015,11012014
1823,10011015,10011016,10012016,10012015,11011015,11011016,11012016,11012015
1824,10011016,10011017,10012017,10012016,11011016,11011017,11012017,11012016
1825,10012001,10012002,10013002,10013001,11012001,11012002,11013002,11013001
1826,10012002,10012003,10013003,10013002,11012002,11012003,11013003,11013002
1827,10012003,10012004,10013004,10013003,11012003,11012004,11013004,11013003
1828,10012004,10012005,10013005,10013004,11012004,11012005,11013005,11013004
1829,10012005,10012006,10013006,10013005,11012005,11012006,11013006,11013005
1830,10012006,10012007,10013007,10013006,11012006,11012007,11013007,11013006
1831,10012007,10012008,10013008,10013007,11012007,11012008,11013008,11013007
1832,10012008,10012009,10013009,10013008,11012008,11012009,11013009,11013008
1833,10012009,10012010,10013010,10013009,11012009,11012010,11013010,11013009
1834,10012010,10012011,10013011,10013010,11012010,11012011,11013011,11013010
1835,10012011,10012012,10013012,10013011,11012011,11012012,11013012,11013011
1836,10012012,10012013,10013013,10013012,11012012,11012013,11013013,11013012
1837,10012013,10012014,10013014,10013013,11012013,11012014,11013014,11013013
1838,10012014,10012015,10013015,10013014,11012014,11012015,11013015,11013014
1839,10012015,10012016,10013016,10013015,11012015,11012016,11013016,11013015
1840,10012016,10012017,10013017,10013016,11012016,11012017,11013017,11013016
1841,10013001,10013002,10014002,10014001,11013001,11013002,11014002,11014001
1842,10013002,10013003,10014003,10014002,11013002,11013003,11014003,11014002
1843,10013003,10013004,10014004,10014003,11013003,11013004,11014004,11014003
1844,10013004,10013005,10014005,10014004,11013004,11013005,11014005,11014004
1845,10013005,10013006,10014006,10014005,11013005,11013006,11014006,11014005
1846,10013006,10013007,10014007,10014006,11013006,11013007,11014007,11014006
1847,10013007,10013008,10014008,10014007,11013007,11013008,11014008,11014007
1848,10013008,10013009,10014009,10014008,11013008,11013009,11014009,11014008
1849,10013009,10013010,10014010,10014009,11013009,11013010,11014010,11014009
1850,10013010,10013011,10014011,10014010,11013010,11013011,11014011,11014010
1851,10013011,10013012,10014012,10014011,11013011,11013012,11014012,11014011
1852,10013012,10013013,10014013,10014012,11013012,11013013,11014013,11014012
1853,10013013,10013014,10014014,10014013,11013013,11013014,11014014,11014013
1854,10013014,10013015,10014015,10014014,11013014,11013015,11014015,11014014
1855,10013015,10013016,10014016,10014015,11013015,11013016,11014016,11014015
1856,10013016,10013017,10014017,10014016,11013016,11013017,11014017,11014016
1857,10014001,10014002,10015002,10015001,11014001,11014002,11015002,11015001
1858,10014002,10014003,10015003,10015002,11014002,11014003,11015003,11015002
1859,10014003,10014004,10015004,10015003,11014003,11014004,11015004,11015003
1860,10014004,10014005,10015005,10015004,11014004,11014005,11015005,11015004
1861,10014005,10014006,10015006,10015005,11014005,11014006,11015006,11015005
1862,10014006,10014007,10015007,10015006,11014006,11014007,11015007,11015006
1863,10014007,10014008,10015008,10015007,11014007,11014008,11015008,11015007
1864,10014008,10014009,10015009,10015008,11014008,11014009,11015009,11015008
1865,10014009,10014010,10015010,10015009,11014009,11014010,11015010,11015009
1866,10014010,10014011,10015011,10015010,11014010,11014011,11015011,11015010
1867,10014011,10014012,10015012,10015011,11014011,11014012,11015012,11015011
1868,10014012,10014013,10015013,10015012,11014012,11014013,11015013,11015012
1869,10014013,10014014,10015014,10015013,11014013,11014014,11015014,11015013
1870,10014014,10014015,10015015,10015014,11014014,11014015,11015015,11015014
1871,10014015,10014016,10015016,10015015,11014015,11014016,11015016,11015015
1872,10014016,10014017,10015017,10015016,11014016,11014017,11015017,11015016
1873,10015001,10015002,10016002,10016001,11015001,11015002,11016002,11016001
1874,10015002,10015003,10016003,10016002,11015002,11015003,11016003,11016002
1875,10015003,10015004,10016004,10016003,11015003,11015004,11016004,11016003
1876,10015004,10015005,10016005,10016004,11015004,11015005,11016005,11016004
1877,10015005,10015006,10016006,10016005,11015005,11015006,11016006,11016005
1878,10015006,10015007,10016007,10016006,11015006,11015007,11016007,11016006
1879,10015007,10015008,10016008,10016007,11015007,11015008,11016008,11016007
1880,10015008,10015009,10016009,10016008,11015008,11015009,11016009,11016008
1881,10015009,10015010,10016010,10016009,11015009,11015010,11016010,11016009
1882,10015010,10015011,10016011,10016010,11015010,11015011,11016011,11016010
1883,10015011,10015012,10016012,10016011,11015011,11015012,11016012,11016011
1884,10015012,10015013,10016013,10016012,11015012,11015013,11016013,11016012
1885,10015013,10015014,10016014,10016013,11015013,11015014,11016014,11016013
1886,10015014,10015015,10016015,10016014,11015014,11015015,11016015,11016014
1887,10015015,10015016,10016016,10016015,11015015,11015016,11016016,11016015
1888,10015016,10015017,10016017,10016016,11015016,11015017,11016017,11016016
1889,11000001,11000002,11001002,11001001,12000001,12000002,12001002,12001001
1890,11000002,11000003,11001003,11001002,12000002,12000003,12001003,12001002
1891,11000003,11000004,11001004,11001003,12000003,12000004,12001004,12001003
1892,11000004,11000005,11001005,11001004,12000004,12000005,12001005,12001004
1893,11000005,11000006,11001006,11001005,12000005,12000006,12001006,12001005
1894,11000006,11000007,11001007,11001006,12000006,12000007,12001007,12001006
1895,11000007,11000008,11001008,11001007,12000007,12000008,12001008,12001007
1896,11000008,11000009,11001009,11001008,12000008,12000009,12001009,12001008
1897,11000009,11000010,11001010,11001009,12000009,12000010,12001010,12001009
1898,11000010,11000011,11001011,11001010,12000010,12000011,12001011,12001010
1899,11000011,11000012,11001012,11001011,12000011,12000012,12001012,12001011
1900,11000012,11000013,11001013,11001012,12000012,12000013,12001013,12001012
1901,11000013,11000014,11001014,11001013,12000013,12000014,12001014,12001013
1902,11000014,11000015,11001015,11001014,12000014,12000015,12001015,12001014
1903,11000015,11000016,11001016,11001015,12000015,12000016,12001016,12001015
1904,11000016,11000017,11001017,11001016,12000016,12000017,12001017,12001016
1905,11001001,11001002,11002002,11002001,12001001,12001002,12002002,12002001
1906,11001002,11001003,11002003,11002002,12001002,12001003,12002003,12002002
1907,11001003,11001004,11002004,11002003,12001003,12001004,12002004,12002003
1908,11001004,11001005,11002005,11002004,12001004,12001005,12002005,12002004
1909,11001005,11001006,11002006,11002005,12001005,12001006,12002006,12002005
1910,11001006,11001007,11002007,11002006,12001006,12001007,12002007,12002006
1911,11001007,11001008,11002008,11002007,12001007,12001008,12002008,12002007
1912,11001008,11001009,11002009,11002008,12001008,12001009,12002009,12002008
1913,11001009,11001010,11002010,11002009,12001009,12001010,12002010,12002009
1914,11001010,11001011,11002011,11002010,12001010,12001011,12002011,12002010
1915,11001011,11001012,11002012,11002011,12001011,12001012,12002012,12002011
1916,11001012,11001013,11002013,11002012,12001012,12001013,12002013,12002012
1917,11001013,11001014,11002014,11002013,12001013,12001014,12002014,12002013
1918,11001014,11001015,11002015,11002014,12001014,12001015,12002015,12002014
1919,11001015,11001016,11002016,11002015,12001015,12001016,12002016,12002015
1920,11001016,11001017,11002017,11002016,12001016,12001017,12002017,12002016
1921,11002001,11002002,11003002,11003001,12002001,12002002,12003002,12003001
1922,11002002,11002003,11003003,11003002,12002002,12002003,12003003,12003002
1923,11002003,11002004,11003004,11003003,12002003,12002004,12003004,12003003
1924,11002004,11002005,11003005,11003004,12002004,12002005,12003005,12003004
1925,11002005,11002006,11003006,11003005,12002005,12002006,12003006,12003005
1926,11002006,11002007,11003007,11003006,12002006,12002007,12003007,12003006
1927,11002007,11002008,11003008,11003007,12002007,12002008,12003008,12003007
1928,11002008,11002009,11003009,11003008,12002008,12002009,12003009,12003008
1929,11002009,11002010,11003010,11003009,12002009,12002010,12003010,12003009
1930,11002010,11002011,11003011,11003010,12002010,12002011,12003011,12003010
1931,11002011,11002012,11003012,11003011,12002011,12002012,12003012,12003011
1932,11002012,11002013,11003013,11003012,12002012,12002013,12003013,12003012
1933,11002013,11002014,11003014,11003013,12002013,12002014,12003014,12003013
1934,11002014,11002015,11003015,11003014,12002014,12002015,12003015,12003014
1935,11002015,11002016,11003016,11003015,12002015,12002016,12003016,12003015
1936,11002016,11002017,11003017,11003016,12002016,12002017,12003017,12003016
1937,11003001,11003002,11004002,11004001,12003001,12003002,12004002,12004001
1938,11003002,11003003,11004003,11004002,12003002,12003003,12004003,12004002
1939,11003003,11003004,11004004,11004003,12003003,12003004,12004004,12004003
1940,11003004,11003005,11004005,11004004,12003004,12003005,12004005,12004004
1941,11003005,11003006,11004006,11004005,12003005,12003006,12004006,12004005
1942,11003006,11003007,11004007,11004006,12003006,12003007,12004007,12004006
1943,11003007,11003008,11004008,11004007,12003007,12003008,12004008,12004007
1944,11003008,11003009,11004009,11004008,12003008,12003009,12004009,12004008
1945,11003009,11003010,11004010,11004009,12003009,12003010,12004010,12004009
1946,11003010,11003011,11004011,11004010,12003010,12003011,12004011,12004010
1947,11003011,11003012,11004012,11004011,12003011,12003012,12004012,12004011
1948,11003012,11003013,11004013,11004012,12003012,12003013,12004013,12004012
1949,11003013,11003014,11004014,11004013,12003013,12003014,12004014,12004013
1950,11003014,11003015,11004015,11004014,12003014,12003015,12004015,12004014
1951,11003015,11003016,11004016,11004015,12003015,12003016,12004016,12004015
1952,11003016,11003017,11004017,11004016,12003016,12003017,12004017,12004016
1953,11004001,11004002,11005002,11005001,12004001,12004002,12005002,12005001
1954,11004002,11004003,11005003,11005002,12004002,12004003,12005003,12005002
1955,11004003,11004004,11005004,11005003,12004003,12004004,12005004,12005003
1956,11004004,11004005,11005005,11005004,12004004,12004005,12005005,12005004
1957,11004005,11004006,11005006,11005005,12004005,12004006,12005006,12005005
1958,11004006,11004007,11005007,11005006,12004006,12004007,12005007,12005006
1959,11004007,11004008,11005008,11005007,12004007,12004008,12005008,12005007
1960,11004008,11004009,11005009,11005008,12004008,12004009,12005009,12005008
1961,11004009,11004010,11005010,11005009,12004009,12004010,12005010,12005009
1962,11004010,11004011,11005011,11005010,12004010,12004011,12005011,12005010
1963,11004011,11004012,11005012,11005011,12004011,12004012,12005012,12005011
1964,11004012,11004013,11005013,11005012,12004012,12004013,12005013,12005012
1965,11004013,11004014,11005014,11005013,12004013,12004014,12005014,12005013
1966,11004014,11004015,11005015,11005014,12004014,12004015,12005015,12005014
1967,11004015,11004016,11005016,11005015,12004015,12004016,12005016,12005015
1968,11004016,11004017,11005017,11005016,12004016,12004017,12005017,12005016
1969,11005001,11005002,11006002,11006001,12005001,12005002,12006002,12006001
1970,11005002,11005003,11006003,11006002,12005002,12005003,12006003,12006002
1971,11005003,11005004,11006004,11006003,12005003,12005004,12006004,12006003
1972,11005004,11005005,11006005,11006004,12005004,12005005,12006005,12006004
1973,11005005,11005006,11006006,11006005,12005005,12005006,12006006,12006005
1974,11005006,11005007,11006007,11006006,12005006,12005007,12006007,12006006
1975,11005007,11005008,11006008,11006007,12005007,12005008,12006008,12006007
1976,11005008,11005009,11006009,11006008,12005008,12005009,12006009,12006008
1977,11005009,11005010,11006010,11006009,12005009,12005010,12006010,12006009
1978,11005010,11005011,11006011,11006010,12005010,12005011,12006011,12006010
1979,11005011,11005012,11006012,11006011,12005011,12005012,12006012,12006011
1980,11005012,11005013,11006013,11006012,12005012,12005013,12006013,12006012
1981,11005013,11005014,11006014,11006013,12005013,12005014,12006014,12006013
1982,11005014,11005015,11006015,11006014,12005014,12005015,12006015,12006014
1983,11005015,11005016,11006016,11006015,12005015,12005016,12006016,12006015
1984,11005016,11005017,11006017,11006016,12005016,12005017,12006017,12006016
1985,11006001,11006002,11007002,11007001,12006001,12006002,12007002,12007001
1986,11006002,11006003,11007003,11007002,12006002,12006003,12007003,12007002
1987,11006003,11006004,11007004,11007003,12006003,12006004,12007004,12007003
1988,11006004,11006005,11007005,11007004,12006004,12006005,12007005,12007004
1989,11006005,11006006,11007006,11007005,12006005,12006006,12007006,12007005
1990,11006006,11006007,11007007,11007006,12006006,12006007,12007007,12007006
1991,11006007,11006008,11007008,11007007,12006007,12006008,12007008,12007007
1992,11006008,11006009,11007009,11007008,12006008,12006009,12007009,12007008
1993,11006009,11006010,11007010,11007009,12006009,12006010,12007010,12007009
1994,11006010,11006011,11007011,11007010,12006010,12006011,12007011,12007010
1995,11006011,11006012,11007012,11007011,12006011,12006012,12007012,12007011
1996,11006012,11006013,11007013,11007012,12006012,12006013,12007013,12007012
1997,11006013,11006014,11007014,11007013,12006013,12006014,12007014,12007013
1998,11006014,11006015,11007015,11007014,12006014,12006015,12007015,12007014
1999,11006015,11006016,11007016,11007015,12006015,12006016,12007016,12007015
2000,11006016,11006017,11007017,11007016,12006016,12006017,12007017,12007016
2001,11007001,11007002,11008002,11008001,12007001,12007002,12008002,12008001
2002,11007002,11007003,11008003,11008002,12007002,12007003,12008003,12008002
2003,11007003,11007004,11008004,11008003,12007003,12007004,12008004,12008003
2004,11007004,11007005,11008005,11008004,12007004,12007005,12008005,12008004
2005,11007005,11007006,11008006,11008005,12007005,12007006,12008006,12008005
2006,11007006,11007007,11008007,11008006,12007006,12007007,12008007,12008006
2007,11007007,11007008,11008008,11008007,12007007,12007008,12008008,12008007
2008,11007008,11007009,11008009,11008008,12007008,12007009,12008009,12008008
2009,11007009,11007010,11008010,11008009,12007009,12007010,12008010,12008009
2010,11007010,11007011,11008011,11008010,12007010,12007011,12008011,12008010
2011,11007011,11007012,11008012,11008011,12007011,12007012,12008012,12008011
2012,11007012,11007013,11008013,11008012,12007012,12007013,12008013,12008012
2013,11007013,11007014,11008014,11008013,12007013,12007014,12008014,12008013
2014,11007014,11007015,11008015,11008014,12007014,12007015,12008015,12008014
2015,11007015,11007016,11008016,11008015,12007015,12007016,12008016,12008015
2016,11007016,11007017,11008017,11008016,12007016,12007017,12008017,12008016
2017,11008001,11008002,11009002,11009001,12008001,12008002,12009002,12009001
2018,11008002,11008003,11009003,11009002,12008002,12008003,12009003,12009002
2019,11008003,11008004,11009004,11009003,12008003,12008004,12009004,12009003
2020,11008004,11008005,11009005,11009004,12008004,12008005,12009005,12009004
2021,11008005,11008006,11009006,11009005,12008005,12008006,12009006,12009005
2022,11008006,11008007,11009007,11009006,12008006,12008007,12009007,12009006
2023,11008007,11008008,11009008,11009007,12008007,12008008,12009008,12009007
2024,11008008,11008009,11009009,11009008,12008008,12008009,12009009,12009008
2025,11008009,11008010,11009010,11009009,12008009,12008010,12009010,12009009
2026,11008010,11008011,11009011,11009010,12008010,12008011,12009011,12009010
2027,11008011,11008012,11009012,11009011,12008011,12008012,12009012,12009011
2028,11008012,11008013,11009013,11009012,12008012,12008013,12009013,12009012
2029,11008013,11008014,11009014,11009013,12008013,12008014,12009014,12009013
2030,11008014,11008015,11009015,11009014,12008014,12008015,12009015,12009014
2031,11008015,11008016,11009016,11009015,12008015,12008016,12009016,12009015
2032,11008016,11008017,11009017,11009016,12008016,12008017,12009017,12009016
2033,11009001,11009002,11010002,11010001,12009001,12009002,12010002,12010001
2034,11009002,11009003,11010003,11010002,12009002,12009003,12010003,12010002
2035,11009003,11009004,11010004,11010003,12009003,12009004,12010004,12010003
2036,11009004,11009005,11010005,11010004,12009004,12009005,12010005,12010004
2037,11009005,11009006,11010006,11010005,12009005,12009006,12010006,12010005
2038,11009006,11009007,11010007,11010006,12009006,12009007,12010007,12010006
2039,11009007,11009008,11010008,11010007,12009007,12009008,12010008,12010007
2040,11009008,11009009,11010009,11010008,12009008,12009009,12010009,12010008
2041,11009009,11009010,11010010,11010009,12009009,12009010,12010010,12010009
2042,11009010,11009011,11010011,11010010,12009010,12009011,12010011,12010010
2043,11009011,11009012,11010012,11010011,12009011,12009012,12010012,12010011
2044,11009012,11009013,11010013,11010012,12009012,12009013,12010013,12010012
2045,11009013,11009014,11010014,11010013,12009013,12009014,12010014,12010013
2046,11009014,11009015,11010015,11010014,12009014,12009015,12010015,12010014
2047,11009015,11009016,11010016,11010015,12009015,12009016,12010016,12010015
2048,11009016,11009017,11010017,11010016,12009016,12009017,12010017,12010016
2049,11010001,11010002,11011002,11011001,12010001,12010002,12011002,12011001
2050,11010002,11010003,11011003,11011002,12010002,12010003,12011003,12011002
2051,11010003,11010004,11011004,11011003,12010003,12010004,12011004,12011003
2052,11010004,11010005,11011005,11011004,12010004,12010005,12011005,12011004
2053,11010005,11010006,11011006,11011005,12010005,12010006,12011006,12011005
2054,11010006,11010007,11011007,11011006,12010006,12010007,12011007,12011006
2055,11010007,11010008,11011008,11011007,12010007,12010008,12011008,12011007
2056,11010008,11010009,11011009,11011008,12010008,12010009,12011009,12011008
2057,11010009,11010010,11011010,11011009,12010009,12010010,12011010,12011009
2058,11010010,11010011,11011011,11011010,12010010,12010011,12011011,12011010
2059,11010011,11010012,11011012,11011011,12010011,12010012,12011012,12011011
2060,11010012,11010013,11011013,11011012,12010012,12010013,12011013,12011012
2061,11010013,11010014,11011014,11011013,12010013,12010014,12011014,12011013
2062,11010014,11010015,11011015,11011014,12010014,12010015,12011015,12011014
2063,11010015,11010016,11011016,11011015,12010015,12010016,12011016,12011015
2064,11010016,11010017,11011017,11011016,12010016,12010017,12011017,12011016
2065,11011001,11011002,11012002,11012001,12011001,12011002,12012002,12012001
2066,11011002,11011003,11012003,11012002,12011002,12011003,12012003,12012002
2067,11011003,11011004,11012004,11012003,12011003,12011004,12012004,12012003
2068,11011004,11011005,11012005,11012004,12011004,12011005,12012005,12012004
2069,11011005,11011006,11012006,11012005,12011005,12011006,12012006,12012005
2070,11011006,11011007,11012007,11012006,12011006,12011007,12012007,12012006
2071,11011007,11011008,11012008,11012007,12011007,12011008,12012008,12012007
2072,11011008,11011009,11012009,11012008,12011008,12011009,12012009,12012008
2073,11011009,11011010,11012010,11012009,12011009,12011010,12012010,12012009
2074,11011010,11011011,11012011,11012010,12011010,12011011,12012011,12012010
2075,11011011,11011012,11012012,11012011,12011011,12011012,12012012,12012011
2076,11011012,11011013,11012013,11012012,12011012,12011013,12012013,12012012
2077,11011013,11011014,11012014,11012013,12011013,12011014,12012014,12012013
2078,11011014,11011015,11012015,11012014,12011014,12011015,12012015,12012014
2079,11011015,11011016,11012016,11012015,12011015,12011016,12012016,12012015
2080,11011016,11011017,11012017,11012016,12011016,12011017,12012017,12012016
2081,11012001,11012002,11013002,11013001,12012001,12012002,12013002,12013001
2082,11012002,11012003,11013003,11013002,12012002,12012003,12013003,12013002
2083,11012003,11012004,11013004,11013003,12012003,12012004,12013004,12013003
2084,11012004,11012005,11013005,11013004,12012004,12012005,12013005,12013004
2085,11012005,11012006,11013006,11013005,12012005,12012006,12013006,12013005
2086,11012006,11012007,11013007,11013006,12012006,12012007,12013007,12013006
2087,11012007,11012008,11013008,11013007,12012007,12012008,12013008,12013007
2088,11012008,11012009,11013009,11013008,12012008,12012009,12013009,12013008
2089,11012009,11012010,11013010,11013009,12012009,12012010,12013010,12013009
2090,11012010,11012011,11013011,11013010,12012010,12012011,12013011,12013010
2091,11012011,11012012,11013012,11013011,12012011,12012012,12013012,12013011
2092,11012012,11012013,11013013,11013012,12012012,12012013,12013013,12013012
2093,11012013,11012014,11013014,11013013,12012013,12012014,12013014,12013013
2094,11012014,11012015,11013015,11013014,12012014,12012015,12013015,12013014
2095,11012015,11012016,11013016,11013015,12012015,12012016,12013016,12013015
2096,11012016,11012017,11013017,11013016,12012016,12012017,12013017,12013016
2097,11013001,11013002,11014002,11014001,12013001,12013002,12014002,12014001
2098,11013002,11013003,11014003,11014002,12013002,12013003,12014003,12014002
2099,11013003,11013004,11014004,11014003,12013003,12013004,12014004,12014003
2100,11013004,11013005,11014005,11014004,12013004,12013005,12014005,12014004
2101,11013005,11013006,11014006,11014005,12013005,12013006,12014006,12014005
2102,11013006,11013007,11014007,11014006,12013006,12013007,12014007,12014006
2103,11013007,11013008,11014008,11014007,12013007,12013008,12014008,12014007
2104,11013008,11013009,11014009,11014008,12013008,12013009,12014009,12014008
2105,11013009,11013010,11014010,11014009,12013009,12013010,12014010,12014009
2106,11013010,11013011,11014011,11014010,12013010,12013011,12014011,12014010
2107,11013011,11013012,11014012,11014011,12013011,12013012,12014012,12014011
2108,11013012,11013013,11014013,11014012,12013012,12013013,12014013,12014012
2109,11013013,11013014,11014014,11014013,12013013,12013014,12014014,12014013
2110,11013014,11013015,11014015,11014014,12013014,12013015,12014015,12014014
2111,11013015,11013016,11014016,11014015,12013015,12013016,12014016,12014015
2112,11013016,11013017,11014017,11014016,12013016,12013017,12014017,12014016
2113,11014001,11014002,11015002,11015001,12014001,12014002,12015002,12015001
2114,11014002,11014003,11015003,11015002,12014002,12014003,12015003,12015002
2115,11014003,11014004,11015004,11015003,12014003,12014004,12015004,12015003
2116,11014004,11014005,11015005,11015004,12014004,12014005,12015005,12015004
2117,11014005,11014006,11015006,11015005,12014005,12014006,12015006,12015005
2118,11014006,11014007,11015007,11015006,12014006,12014007,12015007,12015006
2119,11014007,11014008,11015008,11015007,12014007,12014008,12015008,12015007
2120,11014008,11014009,11015009,11015008,12014008,12014009,12015009,12015008
2121,11014009,11014010,11015010,11015009,12014009,12014010,12015010,12015009
2122,11014010,11014011,11015011,11015010,12014010,12014011,12015011,12015010
2123,11014011,11014012,11015012,11015011,12014011,12014012,12015012,12015011
2124,11014012,11014013,11015013,11015012,12014012,12014013,12015013,12015012
2125,11014013,11014014,11015014,11015013,12014013,12014014,12015014,12015013
2126,11014014,11014015,11015015,11015014,12014014,12014015,12015015,12015014
2127,11014015,11014016,11015016,11015015,12014015,12014016,12015016,12015015
2128,11014016,11014017,11015017,11015016,12014016,12014017,12015017,12015016
2129,11015001,11015002,11016002,11016001,12015001,12015002,12016002,12016001
2130,11015002,11015003,11016003,11016002,12015002,12015003,12016003,12016002
2131,11015003,11015004,11016004,11016003,12015003,12015004,12016004,12016003
2132,11015004,11015005,11016005,11016004,12015004,12015005,12016005,12016004
2133,11015005,11015006,11016006,11016005,12015005,12015006,12016006,12016005
2134,11015006,11015007,11016007,11016006,12015006,12015007,12016007,12016006
2135,11015007,11015008,11016008,11016007,12015007,12015008,12016008,12016007
2136,11015008,11015009,11016009,11016008,12015008,12015009,12016009,12016008
2137,11015009,11015010,11016010,11016009,12015009,12015010,12016010,12016009
2138,11015010,11015011,11016011,11016010,12015010,12015011,12016011,12016010
2139,11015011,11015012,11016012,11016011,12015011,12015012,12016012,12016011
2140,11015012,11015013,11016013,11016012,12015012,12015013,12016013,12016012
2141,11015013,11015014,11016014,11016013,12015013,12015014,12016014,12016013
2142,11015014,11015015,11016015,11016014,12015014,12015015,12016015,12016014
2143,11015015,11015016,11016016,11016015,12015015,12015016,12016016,12016015
2144,11015016,11015017,11016017,11016016,12015016,12015017,12016017,12016016
2145,13001007,13001008,13002008,13002007,14001007,14001008,14002008,14002007
2146,13001008,13001009,13002009,13002008,14001008,14001009,14002009,14002008
2147,13001009,13001010,13002010,13002009,14001009,14001010,14002010,14002009
2148,13001010,13001011,13002011,13002010,14001010,14001011,14002011,14002010
2149,13002005,13002006,13003006,13003005,14002005,14002006,14003006,14003005
2150,13002006,13002007,13003007,13003006,14002006,14002007,14003007,14003006
2151,13002007,13002008,13003008,13003007,14002007,14002008,14003008,14003007
2152,13002008,13002009,13003009,13003008,14002008,14002009,14003009,14003008
2153,13002009,13002010,13003010,13003009,14002009,14002010,14003010,14003009
2154,13002010,13002011,13003011,13003010,14002010,14002011,14003011,14003010
2155,13002011,13002012,13003012,13003011,14002011,14002012,14003012,14003011
2156,13002012,13002013,13003013,13003012,14002012,14002013,14003013,14003012
2157,13003004,13003005,13004005,13004004,14003004,14003005,14004005,14004004
2158,13003005,13003006,13004006,13004005,14003005,14003006,14004006,14004005
2159,13003006,13003007,13004007,13004006,14003006,14003007,14004007,14004006
2160,13003007,13003008,13004008,13004007,14003007,14003008,14004008,14004007
2161,13003008,13003009,13004009,13004008,14003008,14003009,14004009,14004008
2162,13003009,13003010,13004010,13004009,14003009,14003010,14004010,14004009
2163,13003010,13003011,13004011,13004010,14003010,14003011,14004011,14004010
2164,13003011,13003012,13004012,13004011,14003011,14003012,14004012,14004011
2165,13003012,13003013,13004013,13004012,14003012,14003013,14004013,14004012
2166,13003013,13003014,13004014,13004013,14003013,14003014,14004014,14004013
2167,13004003,13004004,13005004,13005003,14004003,14004004,14005004,14005003
2168,13004004,13004005,13005005,13005004,14004004,14004005,14005005,14005004
2169,13004005,13004006,13005006,13005005,14004005,14004006,14005006,14005005
2170,13004006,13004007,13005007,13005006,14004006,14004007,14005007,14005006
2171,13004007,13004008,13005008,13005007,14004007,14004008,14005008,14005007
2172,13004008,13004009,13005009,13005008,14004008,14004009,14005009,14005008
2173,13004009,13004010,13005010,13005009,14004009,14004010,14005010,14005009
2174,13004010,13004011,13005011,13005010,14004010,14004011,14005011,14005010
2175,13004011,13004012,13005012,13005011,14004011,14004012,14005012,14005011
2176,13004012,13004013,13005013,13005012,14004012,14004013,14005013,14005012
2177,13004013,13004014,13005014,13005013,14004013,14004014,14005014,14005013
2178,13004014,13004015,13005015,13005014,14004014,14004015,14005015,14005014
2179,13005003,13005004,13006004,13006003,14005003,14005004,14006004,14006003
2180,13005004,13005005,13006005,13006004,14005004,14005005,14006005,14006004
2181,13005005,13005006,13006006,13006005,14005005,14005006,14006006,14006005
2182,13005006,13005007,13006007,13006006,14005006,14005007,14006007,14006006
2183,13005007,13005008,13006008,13006007,14005007,14005008,14006008,14006007
2184,13005008,13005009,13006009,13006008,14005008,14005009,14006009,14006008
2185,13005009,13005010,13006010,13006009,14005009,14005010,14006010,14006009
2186,13005010,13005011,13006011,13006010,14005010,14005011,14006011,14006010
2187,13005011,13005012,13006012,13006011,14005011,14005012,14006012,14006011
2188,13005012,13005013,13006013,13006012,14005012,14005013,14006013,14006012
2189,13005013,13005014,13006014,13006013,14005013,14005014,14006014,14006013
2190,13005014,13005015,13006015,13006014,14005014,14005015,14006015,14006014
2191,13006002,13006003,13007003,13007002,14006002,14006003,14007003,14007002
2192,13006003,13006004,13007004,13007003,14006003,14006004,14007004,14007003
2193,13006004,13006005,13007005,13007004,14006004,14006005,14007005,14007004
2194,13006005,13006006,13007006,13007005,14006005,14006006,14007006,14007005
2195,13006006,13006007,13007007,13007006,14006006,14006007,14007007,14007006
2196,13006011,13006012,13007012,13007011,14006011,14006012,14007012,14007011
2197,13006012,13006013,13007013,13007012,14006012,14006013,14007013,14007012
2198,13006013,13006014,13007014,13007013,14006013,14006014,14007014,14007013
2199,13006014,13006015,13007015,13007014,14006014,14006015,14007015,14007014
2200,13006015,13006016,13007016,13007015,14006015,14006016,14007016,14007015
2201,13007002,13007003,13008003,13008002,14007002,14007003,14008003,14008002
2202,13007003,13007004,13008004,13008003,14007003,14007004,14008004,14008003
2203,13007004,13007005,13008005,13008004,14007004,14007005,14008005,14008004
2204,13007005,13007006,13008006,13008005,14007005,14007006,14008006,14008005
2205,13007006,13007007,13008007,13008006,14007006,14007007,14008007,14008006
2206,13007011,13007012,13008012,13008011,14007011,14007012,14008012,14008011
2207,13007012,13007013,13008013,13008012,14007012,14007013,14008013,14008012
2208,13007013,13007014,13008014,13008013,14007013,14007014,14008014,14008013
2209,13007014,13007015,13008015,13008014,14007014,14007015,14008015,14008014
2210,13007015,13007016,13008016,13008015,14007015,14007016,14008016,14008015
2211,13008002,13008003,13009003,13009002,14008002,14008003,14009003,14009002
2212,13008003,13008004,13009004,13009003,14008003,14008004,14009004,14009003
2213,13008004,13008005,13009005,13009004,14008004,14008005,14009005,14009004
2214,13008005,13008006,13009006,13009005,14008005,14008006,14009006,14009005
2215,13008006,13008007,13009007,13009006,14008006,14008007,14009007,14009006
2216,13008011,13008012,13009012,13009011,14008011,14008012,14009012,14009011
2217,13008012,13008013,13009013,13009012,14008012,14008013,14009013,14009012
2218,13008013,13008014,13009014,13009013,14008013,14008014,14009014,14009013
2219,13008014,13008015,13009015,13009014,14008014,14008015,14009015,14009014
2220,13008015,13008016,13009016,13009015,14008015,14008016,14009016,14009015
2221,13009002,13009003,13010003,13010002,14009002,14009003,14010003,14010002
2222,13009003,13009004,13010004,13010003,14009003,14009004,14010004,14010003
2223,13009004,13009005,13010005,13010004,14009004,14009005,14010005,14010004
2224,13009005,13009006,13010006,13010005,14009005,14009006,14010006,14010005
2225,13009006,13009007,13010007,13010006,14009006,14009007,14010007,14010006
2226,13009011,13009012,13010012,13010011,14009011,14009012,14010012,14010011
2227,13009012,13009013,13010013,13010012,14009012,14009013,14010013,14010012
2228,13009013,13009014,13010014,13010013,14009013,14009014,14010014,14010013
2229,13009014,13009015,13010015,13010014,14009014,14009015,14010015,14010014
2230,13009015,13009016,13010016,13010015,14009015,14009016,14010016,14010015
2231,13010003,13010004,13011004,13011003,14010003,14010004,14011004,14011003
2232,13010004,13010005,13011005,13011004,14010004,14010005,14011005,14011004
2233,13010005,13010006,13011006,13011005,14010005,14010006,14011006,14011005
2234,13010006,13010007,13011007,13011006,14010006,14010007,14011007,14011006
2235,13010007,13010008,13011008,13011007,14010007,14010008,14011008,14011007
2236,13010008,13010009,13011009,13011008,14010008,14010009,14011009,14011008
2237,13010009,13010010,13011010,13011009,14010009,14010010,14011010,14011009
2238,13010010,13010011,13011011,13011010,14010010,14010011,14011011,14011010
2239,13010011,13010012,13011012,13011011,14010011,14010012,14011012,14011011
2240,13010012,13010013,13011013,13011012,14010012,14010013,14011013,14011012
2241,13010013,13010014,13011014,13011013,14010013,14010014,14011014,14011013
2242,13010014,13010015,13011015,13011014,14010014,14010015,14011015,14011014
2243,13011003,13011004,13012004,13012003,14011003,14011004,14012004,14012003
2244,13011004,13011005,13012005,13012004,14011004,14011005,14012005,14012004
2245,13011005,13011006,13012006,13012005,14011005,14011006,14012006,14012005
2246,13011006,13011007,13012007,13012006,14011006,14011007,14012007,14012006
2247,13011007,13011008,13012008,13012007,14011007,14011008,14012008,14012007
2248,13011008,13011009,13012009,13012008,14011008,14011009,14012009,14012008
2249,13011009,13011010,13012010,13012009,14011009,14011010,14012010,14012009
2250,13011010,13011011,13012011,13012010,14011010,14011011,14012011,14012010
2251,13011011,13011012,13012012,13012011,14011011,14011012,14012012,14012011
2252,13011012,13011013,13012013,13012012,14011012,14011013,14012013,14012012
2253,13011013,13011014,13012014,13012013,14011013,14011014,14012014,14012013
2254,13011014,13011015,13012015,13012014,14011014,14011015,14012015,14012014
2255,13012004,13012005,13013005,13013004,14012004,14012005,14013005,14013004
2256,13012005,13012006,13013006,13013005,14012005,14012006,14013006,14013005
2257,13012006,13012007,13013007,13013006,14012006,14012007,14013007,14013006
2258,13012007,13012008,13013008,13013007,14012007,14012008,14013008,14013007
2259,13012008,13012009,13013009,13013008,14012008,14012009,14013009,14013008
2260,13012009,13012010,13013010,13013009,14012009,14012010,14013010,14013009
2261,13012010,13012011,13013011,13013010,14012010,14012011,14013011,14013010
2262,13012011,13012012,13013012,13013011,14012011,14012012,14013012,14013011
2263,13012012,13012013,13013013,13013012,14012012,14012013,14013013,14013012
2264,13012013,13012014,13013014,13013013,14012013,14012014,14013014,14013013
2265,13013005,13013006,13014006,13014005,14013005,14013006,14014006,14014005
2266,13013006,13013007,13014007,13014006,14013006,14013007,14014007,14014006
2267,13013007,13013008,13014008,13014007,14013007,14013008,14014008,14014007
2268,13013008,13013009,13014009,13014008,14013008,14013009,14014009,14014008
2269,13013009,13013010,13014010,13014009,14013009,14013010,14014010,14014009
2270,13013010,13013011,13014011,13014010,14013010,14013011,14014011,14014010
2271,13013011,13013012,13014012,13014011,14013011,14013012,14014012,14014011
2272,13013012,13013013,13014013,13014012,14013012,14013013,14014013,14014012
2273,13014007,13014008,13015008,13015007,14014007,14014008,14015008,14015007
2274,13014008,13014009,13015009,13015008,14014008,14014009,14015009,14015008
2275,13014009,13014010,13015010,13015009,14014009,14014010,14015010,14015009
2276,13014010,13014011,13015011,13015010,14014010,14014011,14015011,14015010
2277,14001007,14001008,14002008,14002007,15001007,15001008,15002008,15002007
2278,14001008,14001009,14002009,14002008,15001008,15001009,15002009,15002008
2279,14001009,14001010,14002010,14002009,15001009,15001010,15002010,15002009
2280,14001010,14001011,14002011,14002010,15001010,15001011,15002011,15002010
2281,14002005,14002006,14003006,14003005,15002005,15002006,15003006,15003005
2282,14002006,14002007,14003007,14003006,15002006,15002007,15003007,15003006
2283,14002007,14002008,14003008,14003007,15002007,15002008,15003008,15003007
2284,14002008,14002009,14003009,14003008,15002008,15002009,15003009,15003008
2285,14002009,14002010,14003010,14003009,15002009,15002010,15003010,15003009
2286,14002010,14002011,14003011,14003010,15002010,15002011,15003011,15003010
2287,14002011,14002012,14003012,14003011,15002011,15002012,15003012,15003011
2288,14002012,14002013,14003013,14003012,15002012,15002013,15003013,15003012
2289,14003004,14003005,14004005,14004004,15003004,15003005,15004005,15004004
2290,14003005,14003006,14004006,14004005,15003005,15003006,15004006,15004005
2291,14003006,14003007,14004007,14004006,15003006,15003007,15004007,15004006
2292,14003007,14003008,14004008,14004007,15003007,15003008,15004008,15004007
2293,14003008,14003009,14004009,14004008,15003008,15003009,15004009,15004008
2294,14003009,14003010,14004010,14004009,15003009,15003010,15004010,15004009
2295,14003010,14003011,14004011,14004010,15003010,15003011,15004011,15004010
2296,14003011,14003012,14004012,14004011,15003011,15003012,15004012,15004011
2297,14003012,14003013,14004013,14004012,15003012,15003013,15004013,15004012
2298,14003013,14003014,14004014,14004013,15003013,15003014,15004014,15004013
2299,14004003,14004004,14005004,14005003,15004003,15004004,15005004,15005003
2300,14004004,14004005,14005005,14005004,15004004,15004005,15005005,15005004
2301,14004005,14004006,14005006,14005005,15004005,15004006,15005006,15005005
2302,14004006,14004007,14005007,14005006,15004006,15004007,15005007,15005006
2303,14004007,14004008,14005008,14005007,15004007,15004008,15005008,15005007
2304,14004008,14004009,14005009,14005008,15004008,15004009,15005009,15005008
2305,14004009,14004010,14005010,14005009,15004009,15004010,15005010,15005009
2306,14004010,14004011,14005011,14005010,15004010,15004011,15005011,15005010
2307,14004011,14004012,14005012,14005011,15004011,15004012,15005012,15005011
2308,14004012,14004013,14005013,14005012,15004012,15004013,15005013,15005012
2309,14004013,14004014,14005014,14005013,15004013,15004014,15005014,15005013
2310,14004014,14004015,14005015,14005014,15004014,15004015,15005015,15005014
2311,14005003,14005004,14006004,14006003,15005003,15005004,15006004,15006003
2312,14005004,14005005,14006005,14006004,15005004,15005005,15006005,15006004
2313,14005005,14005006,14006006,14006005,15005005,15005006,15006006,15006005
2314,14005006,14005007,14006007,14006006,15005006,15005007,15006007,15006006
2315,14005007,14005008,14006008,14006007,15005007,15005008,15006008,15006007
2316,14005008,14005009,14006009,14006008,15005008,15005009,15006009,15006008
2317,14005009,14005010,14006010,14006009,15005009,15005010,15006010,15006009
2318,14005010,14005011,14006011,14006010,15005010,15005011,15006011,15006010
2319,14005011,14005012,14006012,14006011,15005011,15005012,15006012,15006011
2320,14005012,14005013,14006013,14006012,15005012,15005013,15006013,15006012
2321,14005013,14005014,14006014,14006013,15005013,15005014,15006014,15006013
2322,14005014,14005015,14006015,14006014,15005014,15005015,15006015,15006014
2323,14006002,14006003,14007003,14007002,15006002,15006003,15007003,15007002
2324,14006003,14006004,14007004,14007003,15006003,15006004,15007004,15007003
2325,14006004,14006005,14007005,14007004,15006004,15006005,15007005,15007004
2326,14006005,14006006,14007006,14007005,15006005,15006006,15007006,15007005
2327,14006006,14006007,14007007,14007006,15006006,15006007,15007007,15007006
2328,14006011,14006012,14007012,14007011,15006011,15006012,15007012,15007011
2329,14006012,14006013,14007013,14007012,15006012,15006013,15007013,15007012
2330,14006013,14006014,14007014,14007013,15006013,15006014,15007014,15007013
2331,14006014,14006015,14007015,14007014,15006014,15006015,15007015,15007014
2332,14006015,14006016,14007016,14007015,15006015,15006016,15007016,15007015
2333,14007002,14007003,14008003,14008002,15007002,15007003,15008003,15008002
2334,14007003,14007004,14008004,14008003,15007003,15007004,15008004,15008003
2335,14007004,14007005,14008005,14008004,15007004,15007005,15008005,15008004
2336,14007005,14007006,14008006,14008005,15007005,15007006,15008006,15008005
2337,14007006,14007007,14008007,14008006,15007006,15007007,15008007,15008006
2338,14007011,14007012,14008012,14008011,15007011,15007012,15008012,15008011
2339,14007012,14007013,14008013,14008012,15007012,15007013,15008013,15008012
2340,14007013,14007014,14008014,14008013,15007013,15007014,15008014,15008013
2341,14007014,14007015,14008015,14008014,15007014,15007015,15008015,15008014
2342,14007015,14007016,14008016,14008015,15007015,15007016,15008016,15008015
2343,14008002,14008003,14009003,14009002,15008002,15008003,15009003,15009002
2344,14008003,14008004,14009004,14009003,15008003,15008004,15009004,15009003
2345,14008004,14008005,14009005,14009004,15008004,15008005,15009005,15009004
2346,14008005,14008006,14009006,14009005,15008005,15008006,15009006,15009005
2347,14008006,14008007,14009007,14009006,15008006,15008007,15009007,15009006
2348,14008011,14008012,14009012,14009011,15008011,15008012,15009012,15009011
2349,14008012,14008013,14009013,14009012,15008012,15008013,15009013,15009012
2350,14008013,14008014,14009014,14009013,15008013,15008014,15009014,15009013
2351,14008014,14008015,14009015,14009014,15008014,15008015,15009015,15009014
2352,14008015,14008016,14009016,14009015,15008015,15008016,15009016,15009015
2353,14009002,14009003,14010003,14010002,15009002,15009003,15010003,15010002
2354,14009003,14009004,14010004,14010003,15009003,15009004,15010004,15010003
2355,14009004,14009005,14010005,14010004,15009004,15009005,15010005,15010004
2356,14009005,14009006,14010006,14010005,15009005,15009006,15010006,15010005
2357,14009006,14009007,14010007,14010006,15009006,15009007,15010007,15010006
2358,14009011,14009012,14010012,14010011,15009011,15009012,15010012,15010011
2359,14009012,14009013,14010013,14010012,15009012,15009013,15010013,15010012
2360,14009013,14009014,14010014,14010013,15009013,15009014,15010014,15010013
2361,14009014,14009015,14010015,14010014,15009014,15009015,15010015,15010014
2362,14009015,14009016,14010016,14010015,15009015,15009016,15010016,15010015
2363,14010003,14010004,14011004,14011003,15010003,15010004,15011004,15011003
2364,14010004,14010005,14011005,14011004,15010004,15010005,15011005,15011004
2365,14010005,14010006,14011006,14011005,15010005,15010006,15011006,15011005
2366,14010006,14010007,14011007,14011006,15010006,15010007,15011007,15011006
2367,14010007,14010008,14011008,14011007,15010007,15010008,15011008,15011007
2368,14010008,14010009,14011009,14011008,15010008,15010009,15011009,15011008
2369,14010009,14010010,14011010,14011009,15010009,15010010,15011010,15011009
2370,14010010,14010011,14011011,14011010,15010010,15010011,15011011,15011010
2371,14010011,14010012,14011012,14011011,15010011,15010012,15011012,15011011
2372,14010012,14010013,14011013,14011012,15010012,15010013,15011013,15011012
2373,14010013,14010014,14011014,14011013,15010013,15010014,15011014,15011013
2374,14010014,14010015,14011015,14011014,15010014,15010015,15011015,15011014
2375,14011003,14011004,14012004,14012003,15011003,15011004,15012004,15012003
2376,14011004,14011005,14012005,14012004,15011004,15011005,15012005,15012004
2377,14011005,14011006,14012006,14012005,15011005,15011006,15012006,15012005
2378,14011006,14011007,14012007,14012006,15011006,15011007,15012007,15012006
2379,14011007,14011008,14012008,14012007,15011007,15011008,15012008,15012007
2380,14011008,14011009,14012009,14012008,15011008,15011009,15012009,15012008
2381,14011009,14011010,14012010,14012009,15011009,15011010,15012010,15012009
2382,14011010,14011011,14012011,14012010,15011010,15011011,15012011,15012010
2383,14011011,14011012,14012012,14012011,15011011,15011012,15012012,15012011
2384,14011012,14011013,14012013,14012012,15011012,15011013,15012013,15012012
2385,14011013,14011014,14012014,14012013,15011013,15011014,15012014,15012013
2386,14011014,14011015,14012015,14012014,15011014,15011015,15012015,15012014
2387,14012004,14012005,14013005,14013004,15012004,15012005,15013005,15013004
2388,14012005,14012006,14013006,14013005,15012005,15012006,15013006,15013005
2389,14012006,14012007,14013007,14013006,15012006,15012007,15013007,15013006
2390,14012007,14012008,14013008,14013007,15012007,15012008,15013008,15013007
2391,14012008,14012009,14013009,14013008,15012008,15012009,15013009,15013008
2392,14012009,14012010,14013010,14013009,15012009,15012010,15013010,15013009
2393,14012010,14012011,14013011,14013010,15012010,15012011,15013011,15013010
2394,14012011,14012012,14013012,14013011,15012011,15012012,15013012,15013011
2395,14012012,14012013,14013013,14013012,15012012,15012013,15013013,15013012
2396,14012013,14012014,14013014,14013013,15012013,15012014,15013014,15013013
2397,14013005,14013006,14014006,14014005,15013005,15013006,15014006,15014005
2398,14013006,14013007,14014007,14014006,15013006,15013007,15014007,15014006
2399,14013007,14013008,14014008,14014007,15013007,15013008,15014008,15014007
2400,14013008,14013009,14014009,14014008,15013008,15013009,15014009,15014008
2401,14013009,14013010,14014010,14014009,15013009,15013010,15014010,15014009
2402,14013010,14013011,14014011,14014010,15013010,15013011,15014011,15014010
2403,14013011,14013012,14014012,14014011,15013011,15013012,15014012,15014011
2404,14013012,14013013,14014013,14014012,15013012,15013013,15014013,15014012
2405,14014007,14014008,14015008,14015007,15014007,15014008,15015008,15015007
2406,14014008,14014009,14015009,14015008,15014008,15014009,15015009,15015008
2407,14014009,14014010,14015010,14015009,15014009,15014010,15015010,15015009
2408,14014010,14014011,14015011,14015010,15014010,15014011,15015011,15015010
2409,15001007,15001008,15002008,15002007,16001007,16001008,16002008,16002007
2410,15001008,15001009,15002009,15002008,16001008,16001009,16002009,16002008
2411,15001009,15001010,15002010,15002009,16001009,16001010,16002010,16002009
2412,15001010,15001011,15002011,15002010,16001010,16001011,16002011,16002010
2413,15002005,15002006,15003006,15003005,16002005,16002006,16003006,16003005
2414,15002006,15002007,15003007,15003006,16002006,16002007,16003007,16003006
2415,15002007,15002008,15003008,15003007,16002007,16002008,16003008,16003007
2416,15002008,15002009,15003009,15003008,16002008,16002009,16003009,16003008
2417,15002009,15002010,15003010,15003009,16002009,16002010,16003010,16003009
2418,15002010,15002011,15003011,15003010,16002010,16002011,16003011,16003010
2419,15002011,15002012,15003012,15003011,16002011,16002012,16003012,16003011
2420,15002012,15002013,15003013,15003012,16002012,16002013,16003013,16003012
2421,15003004,15003005,15004005,15004004,16003004,16003005,16004005,16004004
2422,15003005,15003006,15004006,15004005,16003005,16003006,16004006,16004005
2423,15003006,15003007,15004007,15004006,16003006,16003007,16004007,16004006
2424,15003007,15003008,15004008,15004007,16003007,16003008,16004008,16004007
2425,15003008,15003009,15004009,15004008,16003008,16003009,16004009,16004008
2426,15003009,15003010,15004010,15004009,16003009,16003010,16004010,16004009
2427,15003010,15003011,15004011,15004010,16003010,16003011,16004011,16004010
2428,15003011,15003012,15004012,15004011,16003011,16003012,16004012,16004011
2429,15003012,15003013,15004013,15004012,16003012,16003013,16004013,16004012
2430,15003013,15003014,15004014,15004013,16003013,16003014,16004014,16004013
2431,15004003,15004004,15005004,15005003,16004003,16004004,16005004,16005003
2432,15004004,15004005,15005005,15005004,16004004,16004005,16005005,16005004
2433,15004005,15004006,15005006,15005005,16004005,16004006,16005006,16005005
2434,15004006,15004007,15005007,15005006,16004006,16004007,16005007,16005006
2435,15004007,15004008,15005008,15005007,16004007,16004008,16005008,16005007
2436,15004008,15004009,15005009,15005008,16004008,16004009,16005009,16005008
2437,15004009,15004010,15005010,15005009,16004009,16004010,16005010,16005009
2438,15004010,15004011,15005011,15005010,16004010,16004011,16005011,16005010
2439,15004011,15004012,15005012,15005011,16004011,16004012,16005012,16005011
2440,15004012,15004013,15005013,15005012,16004012,16004013,16005013,16005012
2441,15004013,15004014,15005014,15005013,16004013,16004014,16005014,16005013
2442,15004014,15004015,15005015,15005014,16004014,16004015,16005015,16005014
2443,15005003,15005004,15006004,15006003,16005003,16005004,16006004,16006003
2444,15005004,15005005,15006005,15006004,16005004,16005005,16006005,16006004
2445,15005005,15005006,15006006,15006005,16005005,16005006,16006006,16006005
2446,15005006,15005007,15006007,15006006,16005006,16005007,16006007,16006006
2447,15005007,15005008,15006008,15006007,16005007,16005008,16006008,16006007
2448,15005008,15005009,15006009,15006008,16005008,16005009,16006009,16006008
2449,15005009,15005010,15006010,15006009,16005009,16005010,16006010,16006009
2450,15005010,15005011,15006011,15006010,16005010,16005011,16006011,16006010
2451,15005011,15005012,15006012,15006011,16005011,16005012,16006012,16006011
2452,15005012,15005013,15006013,15006012,16005012,16005013,16006013,16006012
2453,15005013,15005014,15006014,15006013,16005013,16005014,16006014,16006013
2454,15005014,15005015,15006015,15006014,16005014,16005015,16006015,16006014
2455,15006002,15006003,15007003,15007002,16006002,16006003,16007003,16007002
2456,15006003,15006004,15007004,15007003,16006003,16006004,16007004,16007003
2457,15006004,15006005,15007005,15007004,16006004,16006005,16007005,16007004
2458,15006005,15006006,15007006,15007005,16006005,16006006,16007006,16007005
2459,15006006,15006007,15007007,15007006,16006006,16006007,16007007,16007006
2460,15006011,15006012,15007012,15007011,16006011,16006012,16007012,16007011
2461,15006012,15006013,15007013,15007012,16006012,16006013,16007013,16007012
2462,15006013,15006014,15007014,15007013,16006013,16006014,16007014,16007013
2463,15006014,15006015,15007015,15007014,16006014,16006015,16007015,16007014
2464,15006015,15006016,15007016,15007015,16006015,16006016,16007016,16007015
2465,15007002,15007003,15008003,15008002,16007002,16007003,16008003,16008002
2466,15007003,15007004,15008004,15008003,16007003,16007004,16008004,16008003
2467,15007004,15007005,15008005,15008004,16007004,16007005,16008005,16008004
2468,15007005,15007006,15008006,15008005,16007005,16007006,16008006,16008005
2469,15007006,15007007,15008007,15008006,16007006,16007007,16008007,16008006
2470,15007011,15007012,15008012,15008011,16007011,16007012,16008012,16008011
2471,15007012,15007013,15008013,15008012,16007012,16007013,16008013,16008012
2472,15007013,15007014,15008014,15008013,16007013,16007014,16008014,16008013
2473,15007014,15007015,15008015,15008014,16007014,16007015,16008015,16008014
2474,15007015,15007016,15008016,15008015,16007015,16007016,16008016,16008015
2475,15008002,15008003,15009003,15009002,16008002,16008003,16009003,16009002
2476,15008003,15008004,15009004,15009003,16008003,16008004,16009004,16009003
2477,15008004,15008005,15009005,15009004,16008004,16008005,16009005,16009004
2478,15008005,15008006,15009006,15009005,16008005,16008006,16009006,16009005
2479,15008006,15008007,15009007,15009006,16008006,16008007,16009007,16009006
2480,15008011,15008012,15009012,15009011,16008011,16008012,16009012,16009011
2481,15008012,15008013,15009013,15009012,16008012,16008013,16009013,16009012
2482,15008013,15008014,15009014,15009013,16008013,16008014,16009014,16009013
2483,15008014,15008015,15009015,15009014,16008014,16008015,16009015,16009014
2484,15008015,15008016,15009016,15009015,16008015,16008016,16009016,16009015
2485,15009002,15009003,15010003,15010002,16009002,16009003,16010003,16010002
2486,15009003,15009004,15010004,15010003,16009003,16009004,16010004,16010003
2487,15009004,15009005,15010005,15010004,16009004,16009005,16010005,16010004
2488,15009005,15009006,15010006,15010005,16009005,16009006,16010006,16010005
2489,15009006,15009007,15010007,15010006,16009006,16009007,16010007,16010006
2490,15009011,15009012,15010012,15010011,16009011,16009012,16010012,16010011
2491,15009012,15009013,15010013,15010012,16009012,16009013,16010013,16010012
2492,15009013,15009014,15010014,15010013,16009013,16009014,16010014,16010013
2493,15009014,15009015,15010015,15010014,16009014,16009015,16010015,16010014
2494,15009015,15009016,15010016,15010015,16009015,16009016,16010016,16010015
2495,15010003,15010004,15011004,15011003,16010003,16010004,16011004,16011003
2496,15010004,15010005,15011005,15011004,16010004,16010005,16011005,16011004
2497,15010005,15010006,15011006,15011005,16010005,16010006,16011006,16011005
2498,15010006,15010007,15011007,15011006,16010006,16010007,16011007,16011006
2499,15010007,15010008,15011008,15011007,16010007,16010008,16011008,16011007
2500,15010008,15010009,15011009,15011008,16010008,16010009,16011009,16011008
2501,15010009,15010010,15011010,15011009,16010009,16010010,16011010,16011009
2502,15010010,15010011,15011011,15011010,16010010,16010011,16011011,16011010
2503,15010011,15010012,15011012,15011011,16010011,16010012,16011012,16011011
2504,15010012,15010013,15011013,15011012,16010012,16010013,16011013,16011012
2505,15010013,15010014,15011014,15011013,16010013,16010014,16011014,16011013
2506,15010014,15010015,15011015,15011014,16010014,16010015,16011015,16011014
2507,15011003,15011004,15012004,15012003,16011003,16011004,16012004,16012003
2508,15011004,15011005,15012005,15012004,16011004,16011005,16012005,16012004
2509,15011005,15011006,15012006,15012005,16011005,16011006,16012006,16012005
2510,15011006,15011007,15012007,15012006,16011006,16011007,16012007,16012006
2511,15011007,15011008,15012008,15012007,16011007,16011008,16012008,16012007
2512,15011008,15011009,15012009,15012008,16011008,16011009,16012009,16012008
2513,15011009,15011010,15012010,15012009,16011009,16011010,16012010,16012009
2514,15011010,15011011,15012011,15012010,16011010,16011011,16012011,16012010
2515,15011011,15011012,15012012,15012011,16011011,16011012,16012012,16012011
2516,15011012,15011013,15012013,15012012,16011012,16011013,16012013,16012012
2517,15011013,15011014,15012014,15012013,16011013,16011014,16012014,16012013
2518,15011014,15011015,15012015,15012014,16011014,16011015,16012015,16012014
2519,15012004,15012005,15013005,15013004,16012004,16012005,16013005,16013004
2520,15012005,15012006,15013006,15013005,16012005,16012006,16013006,16013005
2521,15012006,15012007,15013007,15013006,16012006,16012007,16013007,16013006
2522,15012007,15012008,15013008,15013007,16012007,16012008,16013008,16013007
2523,15012008,15012009,15013009,15013008,16012008,16012009,16013009,16013008
2524,15012009,15012010,15013010,15013009,16012009,16012010,16013010,16013009
2525,15012010,15012011,15013011,15013010,16012010,16012011,16013011,16013010
2526,15012011,15012012,15013012,15013011,16012011,16012012,16013012,16013011
2527,15012012,15012013,15013013,15013012,16012012,16012013,16013013,16013012
2528,15012013,15012014,15013014,15013013,16012013,16012014,16013014,16013013
2529,15013005,15013006,15014006,15014005,16013005,16013006,16014006,16014005
2530,15013006,15013007,15014007,15014006,16013006,16013007,16014007,16014006
2531,15013007,15013008,15014008,15014007,16013007,16013008,16014008,16014007
2532,15013008,15013009,15014009,15014008,16013008,16013009,16014009,16014008
2533,15013009,15013010,15014010,15014009,16013009,16013010,16014010,16014009
2534,15013010,15013011,15014011,15014010,16013010,16013011,16014011,16014010
2535,15013011,15013012,15014012,15014011,16013011,16013012,16014012,16014011
2536,15013012,15013013,15014013,15014012,16013012,16013013,16014013,16014012
2537,15014007,15014008,15015008,15015007,16014007,16014008,16015008,16015007
2538,15014008,15014009,15015009,15015008,16014008,16014009,16015009,16015008
2539,15014009,15014010,15015010,15015009,16014009,16014010,16015010,16015009
2540,15014010,15014011,15015011,15015010,16014010,16014011,16015011,16015010
2541,16001007,16001008,16002008,16002007,17001007,17001008,17002008,17002007
2542,16001008,16001009,16002009,16002008,17001008,17001009,17002009,17002008
2543,16001009,16001010,16002010,16002009,17001009,17001010,17002010,17002009
2544,16001010,16001011,16002011,16002010,17001010,17001011,17002011,17002010
2545,16002005,16002006,16003006,16003005,17002005,17002006,17003006,17003005
2546,16002006,16002007,16003007,16003006,17002006,17002007,17003007,17003006
2547,16002007,16002008,16003008,16003007,17002007,17002008,17003008,17003007
2548,16002008,16002009,16003009,16003008,17002008,17002009,17003009,17003008
2549,16002009,16002010,16003010,16003009,17002009,17002010,17003010,17003009
2550,16002010,16002011,16003011,16003010,17002010,17002011,17003011,17003010
2551,16002011,16002012,16003012,16003011,17002011,17002012,17003012,17003011
2552,16002012,16002013,16003013,16003012,17002012,17002013,17003013,17003012
2553,16003004,16003005,16004005,16004004,17003004,17003005,17004005,17004004
2554,16003005,16003006,16004006,16004005,17003005,17003006,17004006,17004005
2555,16003006,16003007,16004007,16004006,17003006,17003007,17004007,17004006
2556,16003007,16003008,16004008,16004007,17003007,17003008,17004008,17004007
2557,16003008,16003009,16004009,16004008,17003008,17003009,17004009,17004008
2558,16003009,16003010,16004010,16004009,17003009,17003010,17004010,17004009
2559,16003010,16003011,16004011,16004010,17003010,17003011,17004011,17004010
2560,16003011,16003012,16004012,16004011,17003011,17003012,17004012,17004011
2561,16003012,16003013,16004013,16004012,17003012,17003013,17004013,17004012
2562,16003013,16003014,16004014,16004013,17003013,17003014,17004014,17004013
2563,16004003,16004004,16005004,16005003,17004003,17004004,17005004,17005003
2564,16004004,16004005,16005005,16005004,17004004,17004005,17005005,17005004
2565,16004005,16004006,16005006,16005005,17004005,17004006,17005006,17005005
2566,16004006,16004007,16005007,16005006,17004006,17004007,17005007,17005006
2567,16004007,16004008,16005008,16005007,17004007,17004008,17005008,17005007
2568,16004008,16004009,16005009,16005008,17004008,17004009,17005009,17005008
2569,16004009,16004010,16005010,16005009,17004009,17004010,17005010,17005009
2570,16004010,16004011,16005011,16005010,17004010,17004011,17005011,17005010
2571,16004011,16004012,16005012,16005011,17004011,17004012,17005012,17005011
2572,16004012,16004013,16005013,16005012,17004012,17004013,17005013,17005012
2573,16004013,16004014,16005014,16005013,17004013,17004014,17005014,17005013
2574,16004014,16004015,16005015,16005014,17004014,17004015,17005015,17005014
2575,16005003,16005004,16006004,16006003,17005003,17005004,17006004,17006003
2576,16005004,16005005,16006005,16006004,17005004,17005005,17006005,17006004
2577,16005005,16005006,16006006,16006005,17005005,17005006,17006006,17006005
2578,16005006,16005007,16006007,16006006,17005006,17005007,17006007,17006006
2579,16005007,16005008,16006008,16006007,17005007,17005008,17006008,17006007
2580,16005008,16005009,16006009,16006008,17005008,17005009,17006009,17006008
2581,16005009,16005010,16006010,16006009,17005009,17005010,17006010,17006009
2582,16005010,16005011,16006011,16006010,17005010,17005011,17006011,17006010
2583,16005011,16005012,16006012,16006011,17005011,17005012,17006012,17006011
2584,16005012,16005013,16006013,16006012,17005012,17005013,17006013,17006012
2585,16005013,16005014,16006014,16006013,17005013,17005014,17006014,17006013
2586,16005014,16005015,16006015,16006014,17005014,17005015,17006015,17006014
2587,16006002,16006003,16007003,16007002,17006002,17006003,17007003,17007002
2588,16006003,16006004,16007004,16007003,17006003,17006004,17007004,17007003
2589,16006004,16006005,16007005,16007004,17006004,17006005,17007005,17007004
2590,16006005,16006006,16007006,16007005,17006005,17006006,17007006,17007005
2591,16006006,16006007,16007007,16007006,17006006,17006007,17007007,17007006
2592,16006011,16006012,16007012,16007011,17006011,17006012,17007012,17007011
2593,16006012,16006013,16007013,16007012,17006012,17006013,17007013,17007012
2594,16006013,16006014,16007014,16007013,17006013,17006014,17007014,17007013
2595,16006014,16006015,16007015,16007014,17006014,17006015,17007015,17007014
2596,16006015,16006016,16007016,16007015,17006015,17006016,17007016,17007015
2597,16007002,16007003,16008003,16008002,17007002,17007003,17008003,17008002
2598,16007003,16007004,16008004,16008003,17007003,17007004,17008004,17008003
2599,16007004,16007005,16008005,16008004,17007004,17007005,17008005,17008004
2600,16007005,16007006,16008006,16008005,17007005,17007006,17008006,17008005
2601,16007006,16007007,16008007,16008006,17007006,17007007,17008007,17008006
2602,16007011,16007012,16008012,16008011,17007011,17007012,17008012,17008011
2603,16007012,16007013,16008013,16008012,17007012,17007013,17008013,17008012
2604,16007013,16007014,16008014,16008013,17007013,17007014,17008014,17008013
2605,16007014,16007015,16008015,16008014,17007014,17007015,17008015,17008014
2606,16007015,16007016,16008016,16008015,17007015,17007016,17008016,17008015
2607,16008002,16008003,16009003,16009002,17008002,17008003,17009003,17009002
2608,16008003,16008004,16009004,16009003,17008003,17008004,17009004,17009003
2609,16008004,16008005,16009005,16009004,17008004,17008005,17009005,17009004
2610,16008005,16008006,16009006,16009005,17008005,17008006,17009006,17009005
2611,16008006,16008007,16009007,16009006,17008006,17008007,17009007,17009006
2612,16008011,16008012,16009012,16009011,17008011,17008012,17009012,17009011
2613,16008012,16008013,16009013,16009012,17008012,17008013,17009013,17009012
2614,16008013,16008014,16009014,16009013,17008013,17008014,17009014,17009013
2615,16008014,16008015,16009015,16009014,17008014,17008015,17009015,17009014
2616,16008015,16008016,16009016,16009015,17008015,17008016,17009016,17009015
2617,16009002,16009003,16010003,16010002,17009002,17009003,17010003,17010002
2618,16009003,16009004,16010004,16010003,17009003,17009004,17010004,17010003
2619,16009004,16009005,16010005,16010004,17009004,17009005,17010005,17010004
2620,16009005,16009006,16010006,16010005,17009005,17009006,17010006,17010005
2621,16009006,16009007,16010007,16010006,17009006,17009007,17010007,17010006
2622,16009011,16009012,16010012,16010011,17009011,17009012,17010012,17010011
2623,16009012,16009013,16010013,16010012,17009012,17009013,17010013,17010012
2624,16009013,16009014,16010014,16010013,17009013,17009014,17010014,17010013
2625,16009014,16009015,16010015,16010014,17009014,17009015,17010015,17010014
2626,16009015,16009016,16010016,16010015,17009015,17009016,17010016,17010015
2627,16010003,16010004,16011004,16011003,17010003,17010004,17011004,17011003
2628,16010004,16010005,16011005,16011004,17010004,17010005,17011005,17011004
2629,16010005,16010006,16011006,16011005,17010005,17010006,17011006,17011005
2630,16010006,16010007,16011007,16011006,17010006,17010007,17011007,17011006
2631,16010007,16010008,16011008,16011007,17010007,17010008,17011008,17011007
2632,16010008,16010009,16011009,16011008,17010008,17010009,17011009,17011008
2633,16010009,16010010,16011010,16011009,17010009,17010010,17011010,17011009
2634,16010010,16010011,16011011,16011010,17010010,17010011,17011011,17011010
2635,16010011,16010012,16011012,16011011,17010011,17010012,17011012,17011011
2636,16010012,16010013,16011013,16011012,17010012,17010013,17011013,17011012
2637,16010013,16010014,16011014,16011013,17010013,17010014,17011014,17011013
2638,16010014,16010015,16011015,16011014,17010014,17010015,17011015,17011014
2639,16011003,16011004,16012004,16012003,17011003,17011004,17012004,17012003
2640,16011004,16011005,16012005,16012004,17011004,17011005,17012005,17012004
2641,16011005,16011006,16012006,16012005,17011005,17011006,17012006,17012005
2642,16011006,16011007,16012007,16012006,17011006,17011007,17012007,17012006
2643,16011007,16011008,16012008,16012007,17011007,17011008,17012008,17012007
2644,16011008,16011009,16012009,16012008,17011008,17011009,17012009,17012008
2645,16011009,16011010,16012010,16012009,17011009,17011010,17012010,17012009
2646,16011010,16011011,16012011,16012010,17011010,17011011,17012011,17012010
2647,16011011,16011012,16012012,16012011,17011011,17011012,17012012,17012011
2648,16011012,16011013,16012013,16012012,17011012,17011013,17012013,17012012
2649,16011013,16011014,16012014,16012013,17011013,17011014,17012014,17012013
2650,16011014,16011015,16012015,16012014,17011014,17011015,17012015,17012014
2651,16012004,16012005,16013005,16013004,17012004,17012005,17013005,17013004
2652,16012005,16012006,16013006,16013005,17012005,17012006,17013006,17013005
2653,16012006,16012007,16013007,16013006,17012006,17012007,17013007,17013006
2654,16012007,16012008,16013008,16013007,17012007,17012008,17013008,17013007
2655,16012008,16012009,16013009,16013008,17012008,17012009,17013009,17013008
2656,16012009,16012010,16013010,16013009,17012009,17012010,17013010,17013009
2657,16012010,16012011,16013011,16013010,17012010,17012011,17013011,17013010
2658,16012011,16012012,16013012,16013011,17012011,17012012,17013012,17013011
2659,16012012,16012013,16013013,16013012,17012012,17012013,17013013,17013012
2660,16012013,16012014,16013014,16013013,17012013,17012014,17013014,17013013
2661,16013005,16013006,16014006,16014005,17013005,17013006,17014006,17014005
2662,16013006,16013007,16014007,16014006,17013006,17013007,17014007,17014006
2663,16013007,16013008,16014008,16014007,17013007,17013008,17014008,17014007
2664,16013008,16013009,16014009,16014008,17013008,17013009,17014009,17014008
2665,16013009,16013010,16014010,16014009,17013009,17013010,17014010,17014009
2666,16013010,16013011,16014011,16014010,17013010,17013011,17014011,17014010
2667,16013011,16013012,16014012,16014011,17013011,17013012,17014012,17014011
2668,16013012,16013013,16014013,16014012,17013012,17013013,17014013,17014012
2669,16014007,16014008,16015008,16015007,17014007,17014008,17015008,17015007
2670,16014008,16014009,16015009,16015008,17014008,17014009,17015009,17015008
2671,16014009,16014010,16015010,16015009,17014009,17014010,17015010,17015009
2672,16014010,16014011,16015011,16015010,17014010,17014011,17015011,17015010
*ELSET,ELSET=EBRIDGE
1,2,3,4,5,6,7,8,9,10,11,12,13,14,15,16
17,18,19,20,21,22,23,24,25,26,27,28,29,30,31,32
33,34,35,36,37,38,39,40,41,42,43,44,45,46,47,48
49,50,51,52,53,54,55,56,57,58,59,60,61,62,63,64
65,66,67,68,69,70,71,72,73,74,75,76,77,78,79,80
81,82,83,84,85,86,87,88,89,90,91,92,93,94,95,96
97,98,99,100,101,102,103,104,105,106,107,108,109,110,111,112
113,114,115,116,117,118,119,120,121,122,123,124,125,126,127,128
129,130,131,132,133,134,135,136,137,138,139,140,141,142,143,144
145,146,147,148,149,150,151,152,153,154,155,156,157,158,159,160
161,162,163,164,165,166,167,168,169,170,171,172,173,174,175,176
177,178,179,180,181,182,183,184,185,186,187,188,189,190,191,192
193,194,195,196,197,198,199,200,201,202,203,204,205,206,207,208
209,210,211,212,213,214,215,216,217,218,219,220,221,222,223,224
225,226,227,228,229,230,231,232,233,234,235,236,237,238,239,240
241,242,243,244,245,246,247,248,249,250,251,252,253,254,255,256
257,258,259,260,261,262,263,264,265,266,267,268,269,270,271,272
273,274,275,276,277,278,279,280,281,282,283,284,285,286,287,288
289,290,291,292,293,294,295,296,297,298,299,300,301,302,303,304
305,306,307,308,309,310,311,312,313,314,315,316,317,318,319,320
321,322,323,324,325,326,327,328,329,330,331,332,333,334,335,336
337,338,339,340,341,342,343,344,345,346,347,348,349,350,351,352
353,354,355,356,357,358,359,360,361,362,363,364,365,366,367,368
369,370,371,372,373,374,375,376,377,378,379,380,381,382,383,384
385,386,387,388,389,390,391,392,393,394,395,396,397,398,399,400
401,402,403,404,405,406,407,408,409,410,411,412,413,414,415,416
417,418,419,420,421,422,423,424,425,426,427,428,429,430,431,432
433,434,435,436,437,438,439,440,441,442,443,444,445,446,447,448
449,450,451,452,453,454,455,456,457,458,459,460,461,462,463,464
465,466,467,468,469,470,471,472,473,474,475,476,477,478,479,480
481,482,483,484,485,486,487,488,489,490,491,492,493,494,495,496
497,498,499,500,501,502,503,504,505,506,507,508,509,510,511,512
513,514,515,516,517,518,519,520,521,522,523,524,525,526,527,528
529,530,531,532,533,534,535,536,537,538,539,540,541,542,543,544
545,546,547,548,549,550,551,552,553,554,555,556,557,558,559,560
561,562,563,564,565,566,567,568,569,570,571,572,573,574,575,576
577,578,579,580,581,582,583,584,585,586,587,588,589,590,591,592
593,594,595,596,597,598,599,600,601,602,603,604,605,606,607,608
609,610,611,612,613,614,615,616,617,618,619,620,621,622,623,624
625,626,627,628,629,630,631,632,633,634,635,636,637,638,639,640
641,642,643,644,645,646,647,648,649,650,651,652,653,654,655,656
657,658,659,660,661,662,663,664,665,666,667,668,669,670,671,672
673,674,675,676,677,678,679,680,681,682,683,684,685,686,687,688
689,690,691,692,693,694,695,696,697,698,699,700,701,702,703,704
705,706,707,708,709,710,711,712,713,714,715,716,717,718,719,720
721,722,723,724,725,726,727,728,729,730,731,732,733,734,735,736
737,738,739,740,741,742,743,744,745,746,747,748,749,750,751,752
753,754,755,756,757,758,759,760,761,762,763,764,765,766,767,768
769,770,771,772,773,774,775,776,777,778,779,780,781,782,783,784
785,786,787,788,789,790,791,792,793,794,795,796,797,798,799,800
801,802,803,804,805,806,807,808,809,810,811,812,813,814,815,816
817,818,819,820,821,822,823,824,825,826,827,828,829,830,831,832
833,834,835,836,837,838,839,840,841,842,843,844,845,846,847,848
849,850,851,852,853,854,855,856,857,858,859,860,861,862,863,864
865,866,867,868,869,870,871,872,873,874,875,876,877,878,879,880
881,882,883,884,885,886,887,888,889,890,891,892,893,894,895,896
897,898,899,900,901,902,903,904,905,906,907,908,909,910,911,912
913,914,915,916,917,918,919,920,921,922,923,924,925,926,927,928
929,930,931,932,933,934,935,936,937,938,939,940,941,942,943,944
945,946,947,948,949,950,951,952,953,954,955,956,957,958,959,960
*ELSET,ELSET=ESTAGEB
961,962,963,964,965,966,967,968,969,970,971,972,973,974,975,976
977,978,979,980,981,982,983,984,985,986,987,988,989,990,991,992
993,994,995,996,997,998,999,1000,1001,1002,1003,1004,1005,1006,1007,1008
1009,1010,1011,1012,1013,1014,1015,1016,1017,1018,1019,1020,1021,1022,1023,1024
1025,1026,1027,1028,1029,1030,1031,1032,1033,1034,1035,1036,1037,1038,1039,1040
1041,1042,1043,1044,1045,1046,1047,1048,1049,1050,1051,1052,1053,1054,1055,1056
1057,1058,1059,1060,1061,1062,1063,1064,1065,1066,1067,1068,1069,1070,1071,1072
1073,1074,1075,1076,1077,1078,1079,1080,1081,1082,1083,1084,1085,1086,1087,1088
1089,1090,1091,1092,1093,1094,1095,1096,1097,1098,1099,1100,1101,1102,1103,1104
1105,1106,1107,1108,1109,1110,1111,1112,1113,1114,1115,1116,1117,1118,1119,1120
1121,1122,1123,1124,1125,1126,1127,1128,1129,1130,1131,1132,1133,1134,1135,1136
1137,1138,1139,1140,1141,1142,1143,1144,1145,1146,1147,1148,1149,1150,1151,1152
1153,1154,1155,1156,1157,1158,1159,1160,1161,1162,1163,1164,1165,1166,1167,1168
1169,1170,1171,1172,1173,1174,1175,1176,1177,1178,1179,1180,1181,1182,1183,1184
1185,1186,1187,1188,1189,1190,1191,1192,1193,1194,1195,1196,1197,1198,1199,1200
1201,1202,1203,1204,1205,1206,1207,1208,1209,1210,1211,1212,1213,1214,1215,1216
1217,1218,1219,1220,1221,1222,1223,1224,1225,1226,1227,1228,1229,1230,1231,1232
1233,1234,1235,1236,1237,1238,1239,1240,1241,1242,1243,1244,1245,1246,1247,1248
1249,1250,1251,1252,1253,1254,1255,1256,1257,1258,1259,1260,1261,1262,1263,1264
1265,1266,1267,1268,1269,1270,1271,1272,1273,1274,1275,1276,1277,1278,1279,1280
1281,1282,1283,1284,1285,1286,1287,1288,1289,1290,1291,1292,1293,1294,1295,1296
1297,1298,1299,1300,1301,1302,1303,1304,1305,1306,1307,1308,1309,1310,1311,1312
1313,1314,1315,1316,1317,1318,1319,1320,1321,1322,1323,1324,1325,1326,1327,1328
1329,1330,1331,1332,1333,1334,1335,1336,1337,1338,1339,1340,1341,1342,1343,1344
1345,1346,1347,1348,1349,1350,1351,1352,1353,1354,1355,1356,1357,1358,1359,1360
1361,1362,1363,1364,1365,1366,1367,1368,1369,1370,1371,1372,1373,1374,1375,1376
1377,1378,1379,1380,1381,1382,1383,1384,1385,1386,1387,1388,1389,1390,1391,1392
1393,1394,1395,1396,1397,1398,1399,1400,1401,1402,1403,1404,1405,1406,1407,1408
1409,1410,1411,1412,1413,1414,1415,1416,1417,1418,1419,1420,1421,1422,1423,1424
1425,1426,1427,1428,1429,1430,1431,1432,1433,1434,1435,1436,1437,1438,1439,1440
1441,1442,1443,1444,1445,1446,1447,1448,1449,1450,1451,1452,1453,1454,1455,1456
1457,1458,1459,1460,1461,1462,1463,1464,1465,1466,1467,1468,1469,1470,1471,1472
1473,1474,1475,1476,1477,1478,1479,1480,1481,1482,1483,1484,1485,1486,1487,1488
1489,1490,1491,1492,1493,1494,1495,1496,1497,1498,1499,1500,1501,1502,1503,1504
1505,1506,1507,1508,1509,1510,1511,1512,1513,1514,1515,1516,1517,1518,1519,1520
1521,1522,1523,1524,1525,1526,1527,1528,1529,1530,1531,1532,1533,1534,1535,1536
1537,1538,1539,1540,1541,1542,1543,1544,1545,1546,1547,1548,1549,1550,1551,1552
1553,1554,1555,1556,1557,1558,1559,1560,1561,1562,1563,1564,1565,1566,1567,1568
1569,1570,1571,1572,1573,1574,1575,1576,1577,1578,1579,1580,1581,1582,1583,1584
1585,1586,1587,1588,1589,1590,1591,1592,1593,1594,1595,1596,1597,1598,1599,1600
1601,1602,1603,1604,1605,1606,1607,1608,1609,1610,1611,1612,1613,1614,1615,1616
1617,1618,1619,1620,1621,1622,1623,1624,1625,1626,1627,1628,1629,1630,1631,1632
1633,1634,1635,1636,1637,1638,1639,1640,1641,1642,1643,1644,1645,1646,1647,1648
1649,1650,1651,1652,1653,1654,1655,1656,1657,1658,1659,1660,1661,1662,1663,1664
1665,1666,1667,1668,1669,1670,1671,1672,1673,1674,1675,1676,1677,1678,1679,1680
1681,1682,1683,1684,1685,1686,1687,1688,1689,1690,1691,1692,1693,1694,1695,1696
1697,1698,1699,1700,1701,1702,1703,1704,1705,1706,1707,1708,1709,1710,1711,1712
1713,1714,1715,1716,1717,1718,1719,1720,1721,1722,1723,1724,1725,1726,1727,1728
1729,1730,1731,1732,1733,1734,1735,1736,1737,1738,1739,1740,1741,1742,1743,1744
1745,1746,1747,1748,1749,1750,1751,1752,1753,1754,1755,1756,1757,1758,1759,1760
1761,1762,1763,1764,1765,1766,1767,1768,1769,1770,1771,1772,1773,1774,1775,1776
1777,1778,1779,1780,1781,1782,1783,1784,1785,1786,1787,1788,1789,1790,1791,1792
1793,1794,1795,1796,1797,1798,1799,1800,1801,1802,1803,1804,1805,1806,1807,1808
1809,1810,1811,1812,1813,1814,1815,1816,1817,1818,1819,1820,1821,1822,1823,1824
1825,1826,1827,1828,1829,1830,1831,1832,1833,1834,1835,1836,1837,1838,1839,1840
1841,1842,1843,1844,1845,1846,1847,1848,1849,1850,1851,1852,1853,1854,1855,1856
1857,1858,1859,1860,1861,1862,1863,1864,1865,1866,1867,1868,1869,1870,1871,1872
1873,1874,1875,1876,1877,1878,1879,1880,1881,1882,1883,1884,1885,1886,1887,1888
1889,1890,1891,1892,1893,1894,1895,1896,1897,1898,1899,1900,1901,1902,1903,1904
1905,1906,1907,1908,1909,1910,1911,1912,1913,1914,1915,1916,1917,1918,1919,1920
1921,1922,1923,1924,1925,1926,1927,1928,1929,1930,1931,1932,1933,1934,1935,1936
1937,1938,1939,1940,1941,1942,1943,1944,1945,1946,1947,1948,1949,1950,1951,1952
1953,1954,1955,1956,1957,1958,1959,1960,1961,1962,1963,1964,1965,1966,1967,1968
1969,1970,1971,1972,1973,1974,1975,1976,1977,1978,1979,1980,1981,1982,1983,1984
1985,1986,1987,1988,1989,1990,1991,1992,1993,1994,1995,1996,1997,1998,1999,2000
2001,2002,2003,2004,2005,2006,2007,2008,2009,2010,2011,2012,2013,2014,2015,2016
2017,2018,2019,2020,2021,2022,2023,2024,2025,2026,2027,2028,2029,2030,2031,2032
2033,2034,2035,2036,2037,2038,2039,2040,2041,2042,2043,2044,2045,2046,2047,2048
2049,2050,2051,2052,2053,2054,2055,2056,2057,2058,2059,2060,2061,2062,2063,2064
2065,2066,2067,2068,2069,2070,2071,2072,2073,2074,2075,2076,2077,2078,2079,2080
2081,2082,2083,2084,2085,2086,2087,2088,2089,2090,2091,2092,2093,2094,2095,2096
2097,2098,2099,2100,2101,2102,2103,2104,2105,2106,2107,2108,2109,2110,2111,2112
2113,2114,2115,2116,2117,2118,2119,2120,2121,2122,2123,2124,2125,2126,2127,2128
2129,2130,2131,2132,2133,2134,2135,2136,2137,2138,2139,2140,2141,2142,2143,2144
*ELSET,ELSET=ESTAGEA
2145,2146,2147,2148,2149,2150,2151,2152,2153,2154,2155,2156,2157,2158,2159,2160
2161,2162,2163,2164,2165,2166,2167,2168,2169,2170,2171,2172,2173,2174,2175,2176
2177,2178,2179,2180,2181,2182,2183,2184,2185,2186,2187,2188,2189,2190,2191,2192
2193,2194,2195,2196,2197,2198,2199,2200,2201,2202,2203,2204,2205,2206,2207,2208
2209,2210,2211,2212,2213,2214,2215,2216,2217,2218,2219,2220,2221,2222,2223,2224
2225,2226,2227,2228,2229,2230,2231,2232,2233,2234,2235,2236,2237,2238,2239,2240
2241,2242,2243,2244,2245,2246,2247,2248,2249,2250,2251,2252,2253,2254,2255,2256
2257,2258,2259,2260,2261,2262,2263,2264,2265,2266,2267,2268,2269,2270,2271,2272
2273,2274,2275,2276,2277,2278,2279,2280,2281,2282,2283,2284,2285,2286,2287,2288
2289,2290,2291,2292,2293,2294,2295,2296,2297,2298,2299,2300,2301,2302,2303,2304
2305,2306,2307,2308,2309,2310,2311,2312,2313,2314,2315,2316,2317,2318,2319,2320
2321,2322,2323,2324,2325,2326,2327,2328,2329,2330,2331,2332,2333,2334,2335,2336
2337,2338,2339,2340,2341,2342,2343,2344,2345,2346,2347,2348,2349,2350,2351,2352
2353,2354,2355,2356,2357,2358,2359,2360,2361,2362,2363,2364,2365,2366,2367,2368
2369,2370,2371,2372,2373,2374,2375,2376,2377,2378,2379,2380,2381,2382,2383,2384
2385,2386,2387,2388,2389,2390,2391,2392,2393,2394,2395,2396,2397,2398,2399,2400
2401,2402,2403,2404,2405,2406,2407,2408,2409,2410,2411,2412,2413,2414,2415,2416
2417,2418,2419,2420,2421,2422,2423,2424,2425,2426,2427,2428,2429,2430,2431,2432
2433,2434,2435,2436,2437,2438,2439,2440,2441,2442,2443,2444,2445,2446,2447,2448
2449,2450,2451,2452,2453,2454,2455,2456,2457,2458,2459,2460,2461,2462,2463,2464
2465,2466,2467,2468,2469,2470,2471,2472,2473,2474,2475,2476,2477,2478,2479,2480
2481,2482,2483,2484,2485,2486,2487,2488,2489,2490,2491,2492,2493,2494,2495,2496
2497,2498,2499,2500,2501,2502,2503,2504,2505,2506,2507,2508,2509,2510,2511,2512
2513,2514,2515,2516,2517,2518,2519,2520,2521,2522,2523,2524,2525,2526,2527,2528
2529,2530,2531,2532,2533,2534,2535,2536,2537,2538,2539,2540,2541,2542,2543,2544
2545,2546,2547,2548,2549,2550,2551,2552,2553,2554,2555,2556,2557,2558,2559,2560
2561,2562,2563,2564,2565,2566,2567,2568,2569,2570,2571,2572,2573,2574,2575,2576
2577,2578,2579,2580,2581,2582,2583,2584,2585,2586,2587,2588,2589,2590,2591,2592
2593,2594,2595,2596,2597,2598,2599,2600,2601,2602,2603,2604,2605,2606,2607,2608
2609,2610,2611,2612,2613,2614,2615,2616,2617,2618,2619,2620,2621,2622,2623,2624
2625,2626,2627,2628,2629,2630,2631,2632,2633,2634,2635,2636,2637,2638,2639,2640
2641,2642,2643,2644,2645,2646,2647,2648,2649,2650,2651,2652,2653,2654,2655,2656
2657,2658,2659,2660,2661,2662,2663,2664,2665,2666,2667,2668,2669,2670,2671,2672
*ELSET,ELSET=EPROBES
943,1820,2657,355
*NSET,NSET=NFIXED
1000001,1000002,1000003,1000004,1000005,1000006,1000007,1000008,1000009,1000010,1000011,1000012,1000013,1000014,1000015,1000016
1000017,1001001,1001002,1001003,1001004,1001005,1001006,1001007,1001008,1001009,1001010,1001011,1001012,1001013,1001014,1001015
1001016,1001017,1002001,1002002,1002003,1002004,1002005,1002006,1002007,1002008,1002009,1002010,1002011,1002012,1002013,1002014
1002015,1002016,1002017,1003001,1003002,1003003,1003004,1003005,1003006,1003007,1003008,1003009,1003010,1003011,1003012,1003013
1003014,1003015,1003016,1003017,1004001,1004002,1004003,1004004,1004005,1004006,1004007,1004008,1004009,1004010,1004011,1004012
1004013,1004014,1004015,1004016,1004017,1005001,1005002,1005003,1005004,1005005,1005006,1005007,1005008,1005009,1005010,1005011
1005012,1005013,1005014,1005015,1005016,1005017,1006001,1006002,1006003,1006004,1006005,1006006,1006007,1006008,1006009,1006010
1006011,1006012,1006013,1006014,1006015,1006016,1006017,1007001,1007002,1007003,1007004,1007005,1007006,1007007,1007011,1007012
1007013,1007014,1007015,1007016,1007017,1008001,1008002,1008003,1008004,1008005,1008006,1008007,1008011,1008012,1008013,1008014
1008015,1008016,1008017,1009001,1009002,1009003,1009004,1009005,1009006,1009007,1009011,1009012,1009013,1009014,1009015,1009016
1009017,1010001,1010002,1010003,1010004,1010005,1010006,1010007,1010008,1010009,1010010,1010011,1010012,1010013,1010014,1010015
1010016,1010017,1011001,1011002,1011003,1011004,1011005,1011006,1011007,1011008,1011009,1011010,1011011,1011012,1011013,1011014
1011015,1011016,1011017,1012001,1012002,1012003,1012004,1012005,1012006,1012007,1012008,1012009,1012010,1012011,1012012,1012013
1012014,1012015,1012016,1012017,1013001,1013002,1013003,1013004,1013005,1013006,1013007,1013008,1013009,1013010,1013011,1013012
1013013,1013014,1013015,1013016,1013017,1014001,1014002,1014003,1014004,1014005,1014006,1014007,1014008,1014009,1014010,1014011
1014012,1014013,1014014,1014015,1014016,1014017,1015001,1015002,1015003,1015004,1015005,1015006,1015007,1015008,1015009,1015010
1015011,1015012,1015013,1015014,1015015,1015016,1015017,1016001,1016002,1016003,1016004,1016005,1016006,1016007,1016008,1016009
1016010,1016011,1016012,1016013,1016014,1016015,1016016,1016017
*NSET,NSET=NRP
99000000
*NSET,NSET=NS_ARM_SPIDER
17003007,17003008,17004007,17004008,17006013,17006014,17007013,17007014,17009004,17009005,17010004,17010005,17012010,17012011,17013010,17013011
*NSET,NSET=NS_M5_1
12010014,12010015,12011014,12011015,13010014,13010015,13011014,13011015
*NSET,NSET=NS_M5_2
12013011,12013012,12014011,12014012,13013011,13013012,13014011,13014012
*NSET,NSET=NS_M5_3
12013006,12013007,12014006,12014007,13013006,13013007,13014006,13014007
*NSET,NSET=NS_M5_4
12010003,12010004,12011003,12011004,13010003,13010004,13011003,13011004
*NSET,NSET=NS_M5_5
12005003,12005004,12006003,12006004,13005003,13005004,13006003,13006004
*NSET,NSET=NS_M5_6
12002006,12002007,12003006,12003007,13002006,13002007,13003006,13003007
*NSET,NSET=NS_M5_7
12002011,12002012,12003011,12003012,13002011,13002012,13003011,13003012
*NSET,NSET=NS_M5_8
12005014,12005015,12006014,12006015,13005014,13005015,13006014,13006015
*NSET,NSET=NS_M6_1
5014016,5015015,5015016,5015017,5016016,6014016,6015015,6015016,6015017,6016016
*NSET,NSET=NS_M6_2
5000016,5001015,5001016,5001017,5002016,6000016,6001015,6001016,6001017,6002016
*NSET,NSET=NS_M6_3
5014002,5015001,5015002,5015003,5016002,6014002,6015001,6015002,6015003,6016002
*NSET,NSET=NS_M6_4
5000002,5001001,5001002,5001003,5002002,6000002,6001001,6001002,6001003,6002002
*MATERIAL,NAME=AL6061_T6_CAND
*ELASTIC
68300.0,0.33
*DENSITY
2.700e-09
*SOLID SECTION,ELSET=EBRIDGE,MATERIAL=AL6061_T6_CAND
*SOLID SECTION,ELSET=ESTAGEB,MATERIAL=AL6061_T6_CAND
*SOLID SECTION,ELSET=ESTAGEA,MATERIAL=AL6061_T6_CAND
*BOUNDARY
NFIXED,ENCASTRE
** joint couplings (bolt-disk rigid zones) -- identical to solved FEA-1
*SURFACE,TYPE=NODE,NAME=S_NS_ARM_SPIDER
NS_ARM_SPIDER,
*SURFACE,TYPE=NODE,NAME=S_NS_M5_1
NS_M5_1,
*SURFACE,TYPE=NODE,NAME=S_NS_M5_2
NS_M5_2,
*SURFACE,TYPE=NODE,NAME=S_NS_M5_3
NS_M5_3,
*SURFACE,TYPE=NODE,NAME=S_NS_M5_4
NS_M5_4,
*SURFACE,TYPE=NODE,NAME=S_NS_M5_5
NS_M5_5,
*SURFACE,TYPE=NODE,NAME=S_NS_M5_6
NS_M5_6,
*SURFACE,TYPE=NODE,NAME=S_NS_M5_7
NS_M5_7,
*SURFACE,TYPE=NODE,NAME=S_NS_M5_8
NS_M5_8,
*SURFACE,TYPE=NODE,NAME=S_NS_M6_1
NS_M6_1,
*SURFACE,TYPE=NODE,NAME=S_NS_M6_2
NS_M6_2,
*SURFACE,TYPE=NODE,NAME=S_NS_M6_3
NS_M6_3,
*SURFACE,TYPE=NODE,NAME=S_NS_M6_4
NS_M6_4,
*COUPLING,CONSTRAINT NAME=M6_1,REF NODE=99000100,SURFACE=S_NS_M6_1
*KINEMATIC
1,6
*COUPLING,CONSTRAINT NAME=M6_2,REF NODE=99000101,SURFACE=S_NS_M6_2
*KINEMATIC
1,6
*COUPLING,CONSTRAINT NAME=M6_3,REF NODE=99000102,SURFACE=S_NS_M6_3
*KINEMATIC
1,6
*COUPLING,CONSTRAINT NAME=M6_4,REF NODE=99000103,SURFACE=S_NS_M6_4
*KINEMATIC
1,6
*COUPLING,CONSTRAINT NAME=M5_1,REF NODE=99000200,SURFACE=S_NS_M5_1
*KINEMATIC
1,6
*COUPLING,CONSTRAINT NAME=M5_2,REF NODE=99000201,SURFACE=S_NS_M5_2
*KINEMATIC
1,6
*COUPLING,CONSTRAINT NAME=M5_3,REF NODE=99000202,SURFACE=S_NS_M5_3
*KINEMATIC
1,6
*COUPLING,CONSTRAINT NAME=M5_4,REF NODE=99000203,SURFACE=S_NS_M5_4
*KINEMATIC
1,6
*COUPLING,CONSTRAINT NAME=M5_5,REF NODE=99000204,SURFACE=S_NS_M5_5
*KINEMATIC
1,6
*COUPLING,CONSTRAINT NAME=M5_6,REF NODE=99000205,SURFACE=S_NS_M5_6
*KINEMATIC
1,6
*COUPLING,CONSTRAINT NAME=M5_7,REF NODE=99000206,SURFACE=S_NS_M5_7
*KINEMATIC
1,6
*COUPLING,CONSTRAINT NAME=M5_8,REF NODE=99000207,SURFACE=S_NS_M5_8
*KINEMATIC
1,6
*COUPLING,CONSTRAINT NAME=ARM_SPIDER,REF NODE=99000000,SURFACE=S_NS_ARM_SPIDER
*KINEMATIC
1,6
*STEP,NAME=QS_STEP,NLGEOM=NO
*STATIC
1.0,1.0
*CLOAD
99000000,2,0.31050820236037147
99000000,6,217.35574165226001
*NODE PRINT,NSET=NFIXED
RF
*NODE PRINT,NSET=NRP
U
*EL PRINT,ELSET=EPROBES
S
*ENERGY PRINT
*OUTPUT,FIELD,VARIABLE=PRESELECT
*OUTPUT,HISTORY
*ENERGY OUTPUT
*END STEP
