*HEADING
FEA1B_M3R_INTERFACE  case=CAPTURE_22KG_QS  mesh=L3_MM_FINE  eltype=C3D8I  material=AL6061_T6_CAND
M7 WP7 FEA_OPERATIONAL element-formulation closure (ODR-11/ODR-12).
Units: N, mm, MPa, tonne. Linear static. DESIGN_INDICATIVE results only.
** ELEMENT_FORMULATION: C3D8I -- incompatible-mode 8-node hex, 2x2x2 full integration, no hourglass modes, incompatible modes relieve shear locking in bending-dominated thin features (PRIMARY choice)
** MESH_SERIES: MESH_MATCHED  n_xy=20 (pitch 8 mm)  kz=1
** ASSUMPTION: LINEAR_STATIC_SMALL_DISPLACEMENT (NLGEOM off; loads are milli-g level)
** ASSUMPTION: BUS_SIDE_ENCASTRE_ASSUMPTION: BC-BUS-001 bus stiffness authority is HOLD; z=0 face fully clamped = stiff-boundary design bound
** ASSUMPTION: BOLT_DISK_KINEMATIC_COUPLING_ASSUMPTION: M6/M5/M4 joints modelled as rigid coupling disks (r_b=12/10/10 mm, auto-grow to >=1 node/face, recorded); no preload, no friction, no slip
** ASSUMPTION: ARM_BASE_RIGID_SPIDER_ASSUMPTION: B601 base flange stiffness >> 8 mm ring; single RP spider onto 4 as-built M4 disks; sensitivity covered by the 3-level mesh convergence series (CDR rigid_spider rule)
** ASSUMPTION: NO_CONTACT_NO_PRELOAD_NO_FRICTION: CDR joint mechanics HOLD; faces outside bolt disks untied (separation/interpenetration possible; Level-1 bound)
** ASSUMPTION: STAGE_B_IDEALIZED_ANNULAR_PLATE: pocket/recess not resolved; bore dia100 through bottom 2 layers; centre web r<50 modelled 4.0 mm (real 5.595)
** ASSUMPTION: STAGE_A_IDEALIZED_UNIFORM_RING: OD150/ID40 x 8.0 uniform; spigot, recess, counterbores not resolved
** ASSUMPTION: BRIDGE_CORNER_RADIUS_OMITTED: R4 corners modelled square; all boundaries stepped at element corners
** ASSUMPTION: SMALL_HOLES_NOT_CUT: dia6.6/5.5/4.6 holes represented by coupling disks, not voids (locally stiffer); hole-edge peak stress NOT qualified here
** ASSUMPTION: POISSON_ASSUMPTION: nu=0.33 for both Al candidates (not in M6 library)
** ASSUMPTION: MATERIALS_CANDIDATE: 6061-T6 / 7075-T651 elastic constants from M6 WP4 library, classification PROTOTYPE_CANDIDATE; margins DESIGN_INDICATIVE only
** ASSUMPTION: DYNAMIC_FACTOR_ASSUMPTION: quasi-static equivalence F_eq=DAF*J/dt, DAF=2.0, dt=0.1 s; both declared assumptions, research-bound
** ASSUMPTION: LOAD_DIRECTION_ASSUMPTION: transverse +y force plus bending moment about +z; worst-axis alignment declared (near-axisymmetric stack)
** ASSUMPTION: MEMORY_GATE_MESH_ADAPTATION: seeds 16/10/8 mm replace draft 4/2/1 mm; <=4000 C3D8R; 6.7 mm ligament NOT resolved with 3 elements; convergence assessed on global maxima trend only
** ASSUMPTION: ARM_LOADS_BOUNDED_BY_ASSUMPTION: quintic peak accel from LC-010 trajectory x r_eff=0.7 m; e-stop = 2x maneuver; arm inertia tensor not reduced (arm cases shown to be non-governing)
** ASSUMPTION: ELEMENT_FORMULATION_CHANGE: C3D8R (1 IP + hourglass control) replaced by C3D8I (2x2x2 full integration + incompatible modes). No hourglass modes exist in C3D8I, so ALLAE must collapse to ~0; this is the acceptance test
** ASSUMPTION: IP_COUNT_COMPARABILITY: C3D8R reports 1 centroidal integration point, so its 'peak von Mises' is already an element-average; C3D8I reports 8 Gauss points, whose peak is systematically above the element average in a bending field. C3D8R peak must therefore be compared against the C3D8I ELEMENT-AVERAGED value, not against the C3D8I peak IP value
** ASSUMPTION: THROUGH_THICKNESS_REFINEMENT: kz multiplies the layer count of every z segment (bridge 2kz, stage B annulus 2kz, stage B web 1kz, stage A 2kz); kz=1 reproduces the FEA-1 plane list node-for-node
** ASSUMPTION: STAIRCASE_BOUNDARY_SINGULARITY: the dia-40 / dia-100 / OD-150 circular boundaries are stepped at element corners, so each in-plane refinement level presents a DIFFERENT discrete re-entrant-corner set. Peak stress at those steps cannot converge by construction and is excluded from the region-stress convergence metric (fixed 10 mm geometric band)
** ASSUMPTION: POINT_COUPLING_SINGULARITY: the arm-base RP kinematic coupling and the per-bolt kinematic couplings are point/patch constraints; peak stress in their immediate neighbourhood rises monotonically with refinement as a constraint singularity and is reported separately (ODR-11 singularity rule), with a fixed 15 mm exclusion radius for the far-field metric
** Case load: F_y=7.21244 N, M_z=1846.1363212000001 N*mm (F=DAF*J/dt; M=F*L_grasp+DAF*C/dt (envelope row CAP22_030))
**
*NODE
1000001,-80.000000,-80.000000,0.000000
1000002,-72.000000,-80.000000,0.000000
1000003,-64.000000,-80.000000,0.000000
1000004,-56.000000,-80.000000,0.000000
1000005,-48.000000,-80.000000,0.000000
1000006,-40.000000,-80.000000,0.000000
1000007,-32.000000,-80.000000,0.000000
1000008,-24.000000,-80.000000,0.000000
1000009,-16.000000,-80.000000,0.000000
1000010,-8.000000,-80.000000,0.000000
1000011,0.000000,-80.000000,0.000000
1000012,8.000000,-80.000000,0.000000
1000013,16.000000,-80.000000,0.000000
1000014,24.000000,-80.000000,0.000000
1000015,32.000000,-80.000000,0.000000
1000016,40.000000,-80.000000,0.000000
1000017,48.000000,-80.000000,0.000000
1000018,56.000000,-80.000000,0.000000
1000019,64.000000,-80.000000,0.000000
1000020,72.000000,-80.000000,0.000000
1000021,80.000000,-80.000000,0.000000
1001001,-80.000000,-72.000000,0.000000
1001002,-72.000000,-72.000000,0.000000
1001003,-64.000000,-72.000000,0.000000
1001004,-56.000000,-72.000000,0.000000
1001005,-48.000000,-72.000000,0.000000
1001006,-40.000000,-72.000000,0.000000
1001007,-32.000000,-72.000000,0.000000
1001008,-24.000000,-72.000000,0.000000
1001009,-16.000000,-72.000000,0.000000
1001010,-8.000000,-72.000000,0.000000
1001011,0.000000,-72.000000,0.000000
1001012,8.000000,-72.000000,0.000000
1001013,16.000000,-72.000000,0.000000
1001014,24.000000,-72.000000,0.000000
1001015,32.000000,-72.000000,0.000000
1001016,40.000000,-72.000000,0.000000
1001017,48.000000,-72.000000,0.000000
1001018,56.000000,-72.000000,0.000000
1001019,64.000000,-72.000000,0.000000
1001020,72.000000,-72.000000,0.000000
1001021,80.000000,-72.000000,0.000000
1002001,-80.000000,-64.000000,0.000000
1002002,-72.000000,-64.000000,0.000000
1002003,-64.000000,-64.000000,0.000000
1002004,-56.000000,-64.000000,0.000000
1002005,-48.000000,-64.000000,0.000000
1002006,-40.000000,-64.000000,0.000000
1002007,-32.000000,-64.000000,0.000000
1002008,-24.000000,-64.000000,0.000000
1002009,-16.000000,-64.000000,0.000000
1002010,-8.000000,-64.000000,0.000000
1002011,0.000000,-64.000000,0.000000
1002012,8.000000,-64.000000,0.000000
1002013,16.000000,-64.000000,0.000000
1002014,24.000000,-64.000000,0.000000
1002015,32.000000,-64.000000,0.000000
1002016,40.000000,-64.000000,0.000000
1002017,48.000000,-64.000000,0.000000
1002018,56.000000,-64.000000,0.000000
1002019,64.000000,-64.000000,0.000000
1002020,72.000000,-64.000000,0.000000
1002021,80.000000,-64.000000,0.000000
1003001,-80.000000,-56.000000,0.000000
1003002,-72.000000,-56.000000,0.000000
1003003,-64.000000,-56.000000,0.000000
1003004,-56.000000,-56.000000,0.000000
1003005,-48.000000,-56.000000,0.000000
1003006,-40.000000,-56.000000,0.000000
1003007,-32.000000,-56.000000,0.000000
1003008,-24.000000,-56.000000,0.000000
1003009,-16.000000,-56.000000,0.000000
1003010,-8.000000,-56.000000,0.000000
1003011,0.000000,-56.000000,0.000000
1003012,8.000000,-56.000000,0.000000
1003013,16.000000,-56.000000,0.000000
1003014,24.000000,-56.000000,0.000000
1003015,32.000000,-56.000000,0.000000
1003016,40.000000,-56.000000,0.000000
1003017,48.000000,-56.000000,0.000000
1003018,56.000000,-56.000000,0.000000
1003019,64.000000,-56.000000,0.000000
1003020,72.000000,-56.000000,0.000000
1003021,80.000000,-56.000000,0.000000
1004001,-80.000000,-48.000000,0.000000
1004002,-72.000000,-48.000000,0.000000
1004003,-64.000000,-48.000000,0.000000
1004004,-56.000000,-48.000000,0.000000
1004005,-48.000000,-48.000000,0.000000
1004006,-40.000000,-48.000000,0.000000
1004007,-32.000000,-48.000000,0.000000
1004008,-24.000000,-48.000000,0.000000
1004009,-16.000000,-48.000000,0.000000
1004010,-8.000000,-48.000000,0.000000
1004011,0.000000,-48.000000,0.000000
1004012,8.000000,-48.000000,0.000000
1004013,16.000000,-48.000000,0.000000
1004014,24.000000,-48.000000,0.000000
1004015,32.000000,-48.000000,0.000000
1004016,40.000000,-48.000000,0.000000
1004017,48.000000,-48.000000,0.000000
1004018,56.000000,-48.000000,0.000000
1004019,64.000000,-48.000000,0.000000
1004020,72.000000,-48.000000,0.000000
1004021,80.000000,-48.000000,0.000000
1005001,-80.000000,-40.000000,0.000000
1005002,-72.000000,-40.000000,0.000000
1005003,-64.000000,-40.000000,0.000000
1005004,-56.000000,-40.000000,0.000000
1005005,-48.000000,-40.000000,0.000000
1005006,-40.000000,-40.000000,0.000000
1005007,-32.000000,-40.000000,0.000000
1005008,-24.000000,-40.000000,0.000000
1005009,-16.000000,-40.000000,0.000000
1005010,-8.000000,-40.000000,0.000000
1005011,0.000000,-40.000000,0.000000
1005012,8.000000,-40.000000,0.000000
1005013,16.000000,-40.000000,0.000000
1005014,24.000000,-40.000000,0.000000
1005015,32.000000,-40.000000,0.000000
1005016,40.000000,-40.000000,0.000000
1005017,48.000000,-40.000000,0.000000
1005018,56.000000,-40.000000,0.000000
1005019,64.000000,-40.000000,0.000000
1005020,72.000000,-40.000000,0.000000
1005021,80.000000,-40.000000,0.000000
1006001,-80.000000,-32.000000,0.000000
1006002,-72.000000,-32.000000,0.000000
1006003,-64.000000,-32.000000,0.000000
1006004,-56.000000,-32.000000,0.000000
1006005,-48.000000,-32.000000,0.000000
1006006,-40.000000,-32.000000,0.000000
1006007,-32.000000,-32.000000,0.000000
1006008,-24.000000,-32.000000,0.000000
1006009,-16.000000,-32.000000,0.000000
1006010,-8.000000,-32.000000,0.000000
1006011,0.000000,-32.000000,0.000000
1006012,8.000000,-32.000000,0.000000
1006013,16.000000,-32.000000,0.000000
1006014,24.000000,-32.000000,0.000000
1006015,32.000000,-32.000000,0.000000
1006016,40.000000,-32.000000,0.000000
1006017,48.000000,-32.000000,0.000000
1006018,56.000000,-32.000000,0.000000
1006019,64.000000,-32.000000,0.000000
1006020,72.000000,-32.000000,0.000000
1006021,80.000000,-32.000000,0.000000
1007001,-80.000000,-24.000000,0.000000
1007002,-72.000000,-24.000000,0.000000
1007003,-64.000000,-24.000000,0.000000
1007004,-56.000000,-24.000000,0.000000
1007005,-48.000000,-24.000000,0.000000
1007006,-40.000000,-24.000000,0.000000
1007007,-32.000000,-24.000000,0.000000
1007008,-24.000000,-24.000000,0.000000
1007009,-16.000000,-24.000000,0.000000
1007010,-8.000000,-24.000000,0.000000
1007011,0.000000,-24.000000,0.000000
1007012,8.000000,-24.000000,0.000000
1007013,16.000000,-24.000000,0.000000
1007014,24.000000,-24.000000,0.000000
1007015,32.000000,-24.000000,0.000000
1007016,40.000000,-24.000000,0.000000
1007017,48.000000,-24.000000,0.000000
1007018,56.000000,-24.000000,0.000000
1007019,64.000000,-24.000000,0.000000
1007020,72.000000,-24.000000,0.000000
1007021,80.000000,-24.000000,0.000000
1008001,-80.000000,-16.000000,0.000000
1008002,-72.000000,-16.000000,0.000000
1008003,-64.000000,-16.000000,0.000000
1008004,-56.000000,-16.000000,0.000000
1008005,-48.000000,-16.000000,0.000000
1008006,-40.000000,-16.000000,0.000000
1008007,-32.000000,-16.000000,0.000000
1008008,-24.000000,-16.000000,0.000000
1008009,-16.000000,-16.000000,0.000000
1008013,16.000000,-16.000000,0.000000
1008014,24.000000,-16.000000,0.000000
1008015,32.000000,-16.000000,0.000000
1008016,40.000000,-16.000000,0.000000
1008017,48.000000,-16.000000,0.000000
1008018,56.000000,-16.000000,0.000000
1008019,64.000000,-16.000000,0.000000
1008020,72.000000,-16.000000,0.000000
1008021,80.000000,-16.000000,0.000000
1009001,-80.000000,-8.000000,0.000000
1009002,-72.000000,-8.000000,0.000000
1009003,-64.000000,-8.000000,0.000000
1009004,-56.000000,-8.000000,0.000000
1009005,-48.000000,-8.000000,0.000000
1009006,-40.000000,-8.000000,0.000000
1009007,-32.000000,-8.000000,0.000000
1009008,-24.000000,-8.000000,0.000000
1009014,24.000000,-8.000000,0.000000
1009015,32.000000,-8.000000,0.000000
1009016,40.000000,-8.000000,0.000000
1009017,48.000000,-8.000000,0.000000
1009018,56.000000,-8.000000,0.000000
1009019,64.000000,-8.000000,0.000000
1009020,72.000000,-8.000000,0.000000
1009021,80.000000,-8.000000,0.000000
1010001,-80.000000,0.000000,0.000000
1010002,-72.000000,0.000000,0.000000
1010003,-64.000000,0.000000,0.000000
1010004,-56.000000,0.000000,0.000000
1010005,-48.000000,0.000000,0.000000
1010006,-40.000000,0.000000,0.000000
1010007,-32.000000,0.000000,0.000000
1010008,-24.000000,0.000000,0.000000
1010014,24.000000,0.000000,0.000000
1010015,32.000000,0.000000,0.000000
1010016,40.000000,0.000000,0.000000
1010017,48.000000,0.000000,0.000000
1010018,56.000000,0.000000,0.000000
1010019,64.000000,0.000000,0.000000
1010020,72.000000,0.000000,0.000000
1010021,80.000000,0.000000,0.000000
1011001,-80.000000,8.000000,0.000000
1011002,-72.000000,8.000000,0.000000
1011003,-64.000000,8.000000,0.000000
1011004,-56.000000,8.000000,0.000000
1011005,-48.000000,8.000000,0.000000
1011006,-40.000000,8.000000,0.000000
1011007,-32.000000,8.000000,0.000000
1011008,-24.000000,8.000000,0.000000
1011014,24.000000,8.000000,0.000000
1011015,32.000000,8.000000,0.000000
1011016,40.000000,8.000000,0.000000
1011017,48.000000,8.000000,0.000000
1011018,56.000000,8.000000,0.000000
1011019,64.000000,8.000000,0.000000
1011020,72.000000,8.000000,0.000000
1011021,80.000000,8.000000,0.000000
1012001,-80.000000,16.000000,0.000000
1012002,-72.000000,16.000000,0.000000
1012003,-64.000000,16.000000,0.000000
1012004,-56.000000,16.000000,0.000000
1012005,-48.000000,16.000000,0.000000
1012006,-40.000000,16.000000,0.000000
1012007,-32.000000,16.000000,0.000000
1012008,-24.000000,16.000000,0.000000
1012009,-16.000000,16.000000,0.000000
1012013,16.000000,16.000000,0.000000
1012014,24.000000,16.000000,0.000000
1012015,32.000000,16.000000,0.000000
1012016,40.000000,16.000000,0.000000
1012017,48.000000,16.000000,0.000000
1012018,56.000000,16.000000,0.000000
1012019,64.000000,16.000000,0.000000
1012020,72.000000,16.000000,0.000000
1012021,80.000000,16.000000,0.000000
1013001,-80.000000,24.000000,0.000000
1013002,-72.000000,24.000000,0.000000
1013003,-64.000000,24.000000,0.000000
1013004,-56.000000,24.000000,0.000000
1013005,-48.000000,24.000000,0.000000
1013006,-40.000000,24.000000,0.000000
1013007,-32.000000,24.000000,0.000000
1013008,-24.000000,24.000000,0.000000
1013009,-16.000000,24.000000,0.000000
1013010,-8.000000,24.000000,0.000000
1013011,0.000000,24.000000,0.000000
1013012,8.000000,24.000000,0.000000
1013013,16.000000,24.000000,0.000000
1013014,24.000000,24.000000,0.000000
1013015,32.000000,24.000000,0.000000
1013016,40.000000,24.000000,0.000000
1013017,48.000000,24.000000,0.000000
1013018,56.000000,24.000000,0.000000
1013019,64.000000,24.000000,0.000000
1013020,72.000000,24.000000,0.000000
1013021,80.000000,24.000000,0.000000
1014001,-80.000000,32.000000,0.000000
1014002,-72.000000,32.000000,0.000000
1014003,-64.000000,32.000000,0.000000
1014004,-56.000000,32.000000,0.000000
1014005,-48.000000,32.000000,0.000000
1014006,-40.000000,32.000000,0.000000
1014007,-32.000000,32.000000,0.000000
1014008,-24.000000,32.000000,0.000000
1014009,-16.000000,32.000000,0.000000
1014010,-8.000000,32.000000,0.000000
1014011,0.000000,32.000000,0.000000
1014012,8.000000,32.000000,0.000000
1014013,16.000000,32.000000,0.000000
1014014,24.000000,32.000000,0.000000
1014015,32.000000,32.000000,0.000000
1014016,40.000000,32.000000,0.000000
1014017,48.000000,32.000000,0.000000
1014018,56.000000,32.000000,0.000000
1014019,64.000000,32.000000,0.000000
1014020,72.000000,32.000000,0.000000
1014021,80.000000,32.000000,0.000000
1015001,-80.000000,40.000000,0.000000
1015002,-72.000000,40.000000,0.000000
1015003,-64.000000,40.000000,0.000000
1015004,-56.000000,40.000000,0.000000
1015005,-48.000000,40.000000,0.000000
1015006,-40.000000,40.000000,0.000000
1015007,-32.000000,40.000000,0.000000
1015008,-24.000000,40.000000,0.000000
1015009,-16.000000,40.000000,0.000000
1015010,-8.000000,40.000000,0.000000
1015011,0.000000,40.000000,0.000000
1015012,8.000000,40.000000,0.000000
1015013,16.000000,40.000000,0.000000
1015014,24.000000,40.000000,0.000000
1015015,32.000000,40.000000,0.000000
1015016,40.000000,40.000000,0.000000
1015017,48.000000,40.000000,0.000000
1015018,56.000000,40.000000,0.000000
1015019,64.000000,40.000000,0.000000
1015020,72.000000,40.000000,0.000000
1015021,80.000000,40.000000,0.000000
1016001,-80.000000,48.000000,0.000000
1016002,-72.000000,48.000000,0.000000
1016003,-64.000000,48.000000,0.000000
1016004,-56.000000,48.000000,0.000000
1016005,-48.000000,48.000000,0.000000
1016006,-40.000000,48.000000,0.000000
1016007,-32.000000,48.000000,0.000000
1016008,-24.000000,48.000000,0.000000
1016009,-16.000000,48.000000,0.000000
1016010,-8.000000,48.000000,0.000000
1016011,0.000000,48.000000,0.000000
1016012,8.000000,48.000000,0.000000
1016013,16.000000,48.000000,0.000000
1016014,24.000000,48.000000,0.000000
1016015,32.000000,48.000000,0.000000
1016016,40.000000,48.000000,0.000000
1016017,48.000000,48.000000,0.000000
1016018,56.000000,48.000000,0.000000
1016019,64.000000,48.000000,0.000000
1016020,72.000000,48.000000,0.000000
1016021,80.000000,48.000000,0.000000
1017001,-80.000000,56.000000,0.000000
1017002,-72.000000,56.000000,0.000000
1017003,-64.000000,56.000000,0.000000
1017004,-56.000000,56.000000,0.000000
1017005,-48.000000,56.000000,0.000000
1017006,-40.000000,56.000000,0.000000
1017007,-32.000000,56.000000,0.000000
1017008,-24.000000,56.000000,0.000000
1017009,-16.000000,56.000000,0.000000
1017010,-8.000000,56.000000,0.000000
1017011,0.000000,56.000000,0.000000
1017012,8.000000,56.000000,0.000000
1017013,16.000000,56.000000,0.000000
1017014,24.000000,56.000000,0.000000
1017015,32.000000,56.000000,0.000000
1017016,40.000000,56.000000,0.000000
1017017,48.000000,56.000000,0.000000
1017018,56.000000,56.000000,0.000000
1017019,64.000000,56.000000,0.000000
1017020,72.000000,56.000000,0.000000
1017021,80.000000,56.000000,0.000000
1018001,-80.000000,64.000000,0.000000
1018002,-72.000000,64.000000,0.000000
1018003,-64.000000,64.000000,0.000000
1018004,-56.000000,64.000000,0.000000
1018005,-48.000000,64.000000,0.000000
1018006,-40.000000,64.000000,0.000000
1018007,-32.000000,64.000000,0.000000
1018008,-24.000000,64.000000,0.000000
1018009,-16.000000,64.000000,0.000000
1018010,-8.000000,64.000000,0.000000
1018011,0.000000,64.000000,0.000000
1018012,8.000000,64.000000,0.000000
1018013,16.000000,64.000000,0.000000
1018014,24.000000,64.000000,0.000000
1018015,32.000000,64.000000,0.000000
1018016,40.000000,64.000000,0.000000
1018017,48.000000,64.000000,0.000000
1018018,56.000000,64.000000,0.000000
1018019,64.000000,64.000000,0.000000
1018020,72.000000,64.000000,0.000000
1018021,80.000000,64.000000,0.000000
1019001,-80.000000,72.000000,0.000000
1019002,-72.000000,72.000000,0.000000
1019003,-64.000000,72.000000,0.000000
1019004,-56.000000,72.000000,0.000000
1019005,-48.000000,72.000000,0.000000
1019006,-40.000000,72.000000,0.000000
1019007,-32.000000,72.000000,0.000000
1019008,-24.000000,72.000000,0.000000
1019009,-16.000000,72.000000,0.000000
1019010,-8.000000,72.000000,0.000000
1019011,0.000000,72.000000,0.000000
1019012,8.000000,72.000000,0.000000
1019013,16.000000,72.000000,0.000000
1019014,24.000000,72.000000,0.000000
1019015,32.000000,72.000000,0.000000
1019016,40.000000,72.000000,0.000000
1019017,48.000000,72.000000,0.000000
1019018,56.000000,72.000000,0.000000
1019019,64.000000,72.000000,0.000000
1019020,72.000000,72.000000,0.000000
1019021,80.000000,72.000000,0.000000
1020001,-80.000000,80.000000,0.000000
1020002,-72.000000,80.000000,0.000000
1020003,-64.000000,80.000000,0.000000
1020004,-56.000000,80.000000,0.000000
1020005,-48.000000,80.000000,0.000000
1020006,-40.000000,80.000000,0.000000
1020007,-32.000000,80.000000,0.000000
1020008,-24.000000,80.000000,0.000000
1020009,-16.000000,80.000000,0.000000
1020010,-8.000000,80.000000,0.000000
1020011,0.000000,80.000000,0.000000
1020012,8.000000,80.000000,0.000000
1020013,16.000000,80.000000,0.000000
1020014,24.000000,80.000000,0.000000
1020015,32.000000,80.000000,0.000000
1020016,40.000000,80.000000,0.000000
1020017,48.000000,80.000000,0.000000
1020018,56.000000,80.000000,0.000000
1020019,64.000000,80.000000,0.000000
1020020,72.000000,80.000000,0.000000
1020021,80.000000,80.000000,0.000000
2000001,-80.000000,-80.000000,5.375000
2000002,-72.000000,-80.000000,5.375000
2000003,-64.000000,-80.000000,5.375000
2000004,-56.000000,-80.000000,5.375000
2000005,-48.000000,-80.000000,5.375000
2000006,-40.000000,-80.000000,5.375000
2000007,-32.000000,-80.000000,5.375000
2000008,-24.000000,-80.000000,5.375000
2000009,-16.000000,-80.000000,5.375000
2000010,-8.000000,-80.000000,5.375000
2000011,0.000000,-80.000000,5.375000
2000012,8.000000,-80.000000,5.375000
2000013,16.000000,-80.000000,5.375000
2000014,24.000000,-80.000000,5.375000
2000015,32.000000,-80.000000,5.375000
2000016,40.000000,-80.000000,5.375000
2000017,48.000000,-80.000000,5.375000
2000018,56.000000,-80.000000,5.375000
2000019,64.000000,-80.000000,5.375000
2000020,72.000000,-80.000000,5.375000
2000021,80.000000,-80.000000,5.375000
2001001,-80.000000,-72.000000,5.375000
2001002,-72.000000,-72.000000,5.375000
2001003,-64.000000,-72.000000,5.375000
2001004,-56.000000,-72.000000,5.375000
2001005,-48.000000,-72.000000,5.375000
2001006,-40.000000,-72.000000,5.375000
2001007,-32.000000,-72.000000,5.375000
2001008,-24.000000,-72.000000,5.375000
2001009,-16.000000,-72.000000,5.375000
2001010,-8.000000,-72.000000,5.375000
2001011,0.000000,-72.000000,5.375000
2001012,8.000000,-72.000000,5.375000
2001013,16.000000,-72.000000,5.375000
2001014,24.000000,-72.000000,5.375000
2001015,32.000000,-72.000000,5.375000
2001016,40.000000,-72.000000,5.375000
2001017,48.000000,-72.000000,5.375000
2001018,56.000000,-72.000000,5.375000
2001019,64.000000,-72.000000,5.375000
2001020,72.000000,-72.000000,5.375000
2001021,80.000000,-72.000000,5.375000
2002001,-80.000000,-64.000000,5.375000
2002002,-72.000000,-64.000000,5.375000
2002003,-64.000000,-64.000000,5.375000
2002004,-56.000000,-64.000000,5.375000
2002005,-48.000000,-64.000000,5.375000
2002006,-40.000000,-64.000000,5.375000
2002007,-32.000000,-64.000000,5.375000
2002008,-24.000000,-64.000000,5.375000
2002009,-16.000000,-64.000000,5.375000
2002010,-8.000000,-64.000000,5.375000
2002011,0.000000,-64.000000,5.375000
2002012,8.000000,-64.000000,5.375000
2002013,16.000000,-64.000000,5.375000
2002014,24.000000,-64.000000,5.375000
2002015,32.000000,-64.000000,5.375000
2002016,40.000000,-64.000000,5.375000
2002017,48.000000,-64.000000,5.375000
2002018,56.000000,-64.000000,5.375000
2002019,64.000000,-64.000000,5.375000
2002020,72.000000,-64.000000,5.375000
2002021,80.000000,-64.000000,5.375000
2003001,-80.000000,-56.000000,5.375000
2003002,-72.000000,-56.000000,5.375000
2003003,-64.000000,-56.000000,5.375000
2003004,-56.000000,-56.000000,5.375000
2003005,-48.000000,-56.000000,5.375000
2003006,-40.000000,-56.000000,5.375000
2003007,-32.000000,-56.000000,5.375000
2003008,-24.000000,-56.000000,5.375000
2003009,-16.000000,-56.000000,5.375000
2003010,-8.000000,-56.000000,5.375000
2003011,0.000000,-56.000000,5.375000
2003012,8.000000,-56.000000,5.375000
2003013,16.000000,-56.000000,5.375000
2003014,24.000000,-56.000000,5.375000
2003015,32.000000,-56.000000,5.375000
2003016,40.000000,-56.000000,5.375000
2003017,48.000000,-56.000000,5.375000
2003018,56.000000,-56.000000,5.375000
2003019,64.000000,-56.000000,5.375000
2003020,72.000000,-56.000000,5.375000
2003021,80.000000,-56.000000,5.375000
2004001,-80.000000,-48.000000,5.375000
2004002,-72.000000,-48.000000,5.375000
2004003,-64.000000,-48.000000,5.375000
2004004,-56.000000,-48.000000,5.375000
2004005,-48.000000,-48.000000,5.375000
2004006,-40.000000,-48.000000,5.375000
2004007,-32.000000,-48.000000,5.375000
2004008,-24.000000,-48.000000,5.375000
2004009,-16.000000,-48.000000,5.375000
2004010,-8.000000,-48.000000,5.375000
2004011,0.000000,-48.000000,5.375000
2004012,8.000000,-48.000000,5.375000
2004013,16.000000,-48.000000,5.375000
2004014,24.000000,-48.000000,5.375000
2004015,32.000000,-48.000000,5.375000
2004016,40.000000,-48.000000,5.375000
2004017,48.000000,-48.000000,5.375000
2004018,56.000000,-48.000000,5.375000
2004019,64.000000,-48.000000,5.375000
2004020,72.000000,-48.000000,5.375000
2004021,80.000000,-48.000000,5.375000
2005001,-80.000000,-40.000000,5.375000
2005002,-72.000000,-40.000000,5.375000
2005003,-64.000000,-40.000000,5.375000
2005004,-56.000000,-40.000000,5.375000
2005005,-48.000000,-40.000000,5.375000
2005006,-40.000000,-40.000000,5.375000
2005007,-32.000000,-40.000000,5.375000
2005008,-24.000000,-40.000000,5.375000
2005009,-16.000000,-40.000000,5.375000
2005010,-8.000000,-40.000000,5.375000
2005011,0.000000,-40.000000,5.375000
2005012,8.000000,-40.000000,5.375000
2005013,16.000000,-40.000000,5.375000
2005014,24.000000,-40.000000,5.375000
2005015,32.000000,-40.000000,5.375000
2005016,40.000000,-40.000000,5.375000
2005017,48.000000,-40.000000,5.375000
2005018,56.000000,-40.000000,5.375000
2005019,64.000000,-40.000000,5.375000
2005020,72.000000,-40.000000,5.375000
2005021,80.000000,-40.000000,5.375000
2006001,-80.000000,-32.000000,5.375000
2006002,-72.000000,-32.000000,5.375000
2006003,-64.000000,-32.000000,5.375000
2006004,-56.000000,-32.000000,5.375000
2006005,-48.000000,-32.000000,5.375000
2006006,-40.000000,-32.000000,5.375000
2006007,-32.000000,-32.000000,5.375000
2006008,-24.000000,-32.000000,5.375000
2006009,-16.000000,-32.000000,5.375000
2006010,-8.000000,-32.000000,5.375000
2006011,0.000000,-32.000000,5.375000
2006012,8.000000,-32.000000,5.375000
2006013,16.000000,-32.000000,5.375000
2006014,24.000000,-32.000000,5.375000
2006015,32.000000,-32.000000,5.375000
2006016,40.000000,-32.000000,5.375000
2006017,48.000000,-32.000000,5.375000
2006018,56.000000,-32.000000,5.375000
2006019,64.000000,-32.000000,5.375000
2006020,72.000000,-32.000000,5.375000
2006021,80.000000,-32.000000,5.375000
2007001,-80.000000,-24.000000,5.375000
2007002,-72.000000,-24.000000,5.375000
2007003,-64.000000,-24.000000,5.375000
2007004,-56.000000,-24.000000,5.375000
2007005,-48.000000,-24.000000,5.375000
2007006,-40.000000,-24.000000,5.375000
2007007,-32.000000,-24.000000,5.375000
2007008,-24.000000,-24.000000,5.375000
2007009,-16.000000,-24.000000,5.375000
2007010,-8.000000,-24.000000,5.375000
2007011,0.000000,-24.000000,5.375000
2007012,8.000000,-24.000000,5.375000
2007013,16.000000,-24.000000,5.375000
2007014,24.000000,-24.000000,5.375000
2007015,32.000000,-24.000000,5.375000
2007016,40.000000,-24.000000,5.375000
2007017,48.000000,-24.000000,5.375000
2007018,56.000000,-24.000000,5.375000
2007019,64.000000,-24.000000,5.375000
2007020,72.000000,-24.000000,5.375000
2007021,80.000000,-24.000000,5.375000
2008001,-80.000000,-16.000000,5.375000
2008002,-72.000000,-16.000000,5.375000
2008003,-64.000000,-16.000000,5.375000
2008004,-56.000000,-16.000000,5.375000
2008005,-48.000000,-16.000000,5.375000
2008006,-40.000000,-16.000000,5.375000
2008007,-32.000000,-16.000000,5.375000
2008008,-24.000000,-16.000000,5.375000
2008009,-16.000000,-16.000000,5.375000
2008013,16.000000,-16.000000,5.375000
2008014,24.000000,-16.000000,5.375000
2008015,32.000000,-16.000000,5.375000
2008016,40.000000,-16.000000,5.375000
2008017,48.000000,-16.000000,5.375000
2008018,56.000000,-16.000000,5.375000
2008019,64.000000,-16.000000,5.375000
2008020,72.000000,-16.000000,5.375000
2008021,80.000000,-16.000000,5.375000
2009001,-80.000000,-8.000000,5.375000
2009002,-72.000000,-8.000000,5.375000
2009003,-64.000000,-8.000000,5.375000
2009004,-56.000000,-8.000000,5.375000
2009005,-48.000000,-8.000000,5.375000
2009006,-40.000000,-8.000000,5.375000
2009007,-32.000000,-8.000000,5.375000
2009008,-24.000000,-8.000000,5.375000
2009014,24.000000,-8.000000,5.375000
2009015,32.000000,-8.000000,5.375000
2009016,40.000000,-8.000000,5.375000
2009017,48.000000,-8.000000,5.375000
2009018,56.000000,-8.000000,5.375000
2009019,64.000000,-8.000000,5.375000
2009020,72.000000,-8.000000,5.375000
2009021,80.000000,-8.000000,5.375000
2010001,-80.000000,0.000000,5.375000
2010002,-72.000000,0.000000,5.375000
2010003,-64.000000,0.000000,5.375000
2010004,-56.000000,0.000000,5.375000
2010005,-48.000000,0.000000,5.375000
2010006,-40.000000,0.000000,5.375000
2010007,-32.000000,0.000000,5.375000
2010008,-24.000000,0.000000,5.375000
2010014,24.000000,0.000000,5.375000
2010015,32.000000,0.000000,5.375000
2010016,40.000000,0.000000,5.375000
2010017,48.000000,0.000000,5.375000
2010018,56.000000,0.000000,5.375000
2010019,64.000000,0.000000,5.375000
2010020,72.000000,0.000000,5.375000
2010021,80.000000,0.000000,5.375000
2011001,-80.000000,8.000000,5.375000
2011002,-72.000000,8.000000,5.375000
2011003,-64.000000,8.000000,5.375000
2011004,-56.000000,8.000000,5.375000
2011005,-48.000000,8.000000,5.375000
2011006,-40.000000,8.000000,5.375000
2011007,-32.000000,8.000000,5.375000
2011008,-24.000000,8.000000,5.375000
2011014,24.000000,8.000000,5.375000
2011015,32.000000,8.000000,5.375000
2011016,40.000000,8.000000,5.375000
2011017,48.000000,8.000000,5.375000
2011018,56.000000,8.000000,5.375000
2011019,64.000000,8.000000,5.375000
2011020,72.000000,8.000000,5.375000
2011021,80.000000,8.000000,5.375000
2012001,-80.000000,16.000000,5.375000
2012002,-72.000000,16.000000,5.375000
2012003,-64.000000,16.000000,5.375000
2012004,-56.000000,16.000000,5.375000
2012005,-48.000000,16.000000,5.375000
2012006,-40.000000,16.000000,5.375000
2012007,-32.000000,16.000000,5.375000
2012008,-24.000000,16.000000,5.375000
2012009,-16.000000,16.000000,5.375000
2012013,16.000000,16.000000,5.375000
2012014,24.000000,16.000000,5.375000
2012015,32.000000,16.000000,5.375000
2012016,40.000000,16.000000,5.375000
2012017,48.000000,16.000000,5.375000
2012018,56.000000,16.000000,5.375000
2012019,64.000000,16.000000,5.375000
2012020,72.000000,16.000000,5.375000
2012021,80.000000,16.000000,5.375000
2013001,-80.000000,24.000000,5.375000
2013002,-72.000000,24.000000,5.375000
2013003,-64.000000,24.000000,5.375000
2013004,-56.000000,24.000000,5.375000
2013005,-48.000000,24.000000,5.375000
2013006,-40.000000,24.000000,5.375000
2013007,-32.000000,24.000000,5.375000
2013008,-24.000000,24.000000,5.375000
2013009,-16.000000,24.000000,5.375000
2013010,-8.000000,24.000000,5.375000
2013011,0.000000,24.000000,5.375000
2013012,8.000000,24.000000,5.375000
2013013,16.000000,24.000000,5.375000
2013014,24.000000,24.000000,5.375000
2013015,32.000000,24.000000,5.375000
2013016,40.000000,24.000000,5.375000
2013017,48.000000,24.000000,5.375000
2013018,56.000000,24.000000,5.375000
2013019,64.000000,24.000000,5.375000
2013020,72.000000,24.000000,5.375000
2013021,80.000000,24.000000,5.375000
2014001,-80.000000,32.000000,5.375000
2014002,-72.000000,32.000000,5.375000
2014003,-64.000000,32.000000,5.375000
2014004,-56.000000,32.000000,5.375000
2014005,-48.000000,32.000000,5.375000
2014006,-40.000000,32.000000,5.375000
2014007,-32.000000,32.000000,5.375000
2014008,-24.000000,32.000000,5.375000
2014009,-16.000000,32.000000,5.375000
2014010,-8.000000,32.000000,5.375000
2014011,0.000000,32.000000,5.375000
2014012,8.000000,32.000000,5.375000
2014013,16.000000,32.000000,5.375000
2014014,24.000000,32.000000,5.375000
2014015,32.000000,32.000000,5.375000
2014016,40.000000,32.000000,5.375000
2014017,48.000000,32.000000,5.375000
2014018,56.000000,32.000000,5.375000
2014019,64.000000,32.000000,5.375000
2014020,72.000000,32.000000,5.375000
2014021,80.000000,32.000000,5.375000
2015001,-80.000000,40.000000,5.375000
2015002,-72.000000,40.000000,5.375000
2015003,-64.000000,40.000000,5.375000
2015004,-56.000000,40.000000,5.375000
2015005,-48.000000,40.000000,5.375000
2015006,-40.000000,40.000000,5.375000
2015007,-32.000000,40.000000,5.375000
2015008,-24.000000,40.000000,5.375000
2015009,-16.000000,40.000000,5.375000
2015010,-8.000000,40.000000,5.375000
2015011,0.000000,40.000000,5.375000
2015012,8.000000,40.000000,5.375000
2015013,16.000000,40.000000,5.375000
2015014,24.000000,40.000000,5.375000
2015015,32.000000,40.000000,5.375000
2015016,40.000000,40.000000,5.375000
2015017,48.000000,40.000000,5.375000
2015018,56.000000,40.000000,5.375000
2015019,64.000000,40.000000,5.375000
2015020,72.000000,40.000000,5.375000
2015021,80.000000,40.000000,5.375000
2016001,-80.000000,48.000000,5.375000
2016002,-72.000000,48.000000,5.375000
2016003,-64.000000,48.000000,5.375000
2016004,-56.000000,48.000000,5.375000
2016005,-48.000000,48.000000,5.375000
2016006,-40.000000,48.000000,5.375000
2016007,-32.000000,48.000000,5.375000
2016008,-24.000000,48.000000,5.375000
2016009,-16.000000,48.000000,5.375000
2016010,-8.000000,48.000000,5.375000
2016011,0.000000,48.000000,5.375000
2016012,8.000000,48.000000,5.375000
2016013,16.000000,48.000000,5.375000
2016014,24.000000,48.000000,5.375000
2016015,32.000000,48.000000,5.375000
2016016,40.000000,48.000000,5.375000
2016017,48.000000,48.000000,5.375000
2016018,56.000000,48.000000,5.375000
2016019,64.000000,48.000000,5.375000
2016020,72.000000,48.000000,5.375000
2016021,80.000000,48.000000,5.375000
2017001,-80.000000,56.000000,5.375000
2017002,-72.000000,56.000000,5.375000
2017003,-64.000000,56.000000,5.375000
2017004,-56.000000,56.000000,5.375000
2017005,-48.000000,56.000000,5.375000
2017006,-40.000000,56.000000,5.375000
2017007,-32.000000,56.000000,5.375000
2017008,-24.000000,56.000000,5.375000
2017009,-16.000000,56.000000,5.375000
2017010,-8.000000,56.000000,5.375000
2017011,0.000000,56.000000,5.375000
2017012,8.000000,56.000000,5.375000
2017013,16.000000,56.000000,5.375000
2017014,24.000000,56.000000,5.375000
2017015,32.000000,56.000000,5.375000
2017016,40.000000,56.000000,5.375000
2017017,48.000000,56.000000,5.375000
2017018,56.000000,56.000000,5.375000
2017019,64.000000,56.000000,5.375000
2017020,72.000000,56.000000,5.375000
2017021,80.000000,56.000000,5.375000
2018001,-80.000000,64.000000,5.375000
2018002,-72.000000,64.000000,5.375000
2018003,-64.000000,64.000000,5.375000
2018004,-56.000000,64.000000,5.375000
2018005,-48.000000,64.000000,5.375000
2018006,-40.000000,64.000000,5.375000
2018007,-32.000000,64.000000,5.375000
2018008,-24.000000,64.000000,5.375000
2018009,-16.000000,64.000000,5.375000
2018010,-8.000000,64.000000,5.375000
2018011,0.000000,64.000000,5.375000
2018012,8.000000,64.000000,5.375000
2018013,16.000000,64.000000,5.375000
2018014,24.000000,64.000000,5.375000
2018015,32.000000,64.000000,5.375000
2018016,40.000000,64.000000,5.375000
2018017,48.000000,64.000000,5.375000
2018018,56.000000,64.000000,5.375000
2018019,64.000000,64.000000,5.375000
2018020,72.000000,64.000000,5.375000
2018021,80.000000,64.000000,5.375000
2019001,-80.000000,72.000000,5.375000
2019002,-72.000000,72.000000,5.375000
2019003,-64.000000,72.000000,5.375000
2019004,-56.000000,72.000000,5.375000
2019005,-48.000000,72.000000,5.375000
2019006,-40.000000,72.000000,5.375000
2019007,-32.000000,72.000000,5.375000
2019008,-24.000000,72.000000,5.375000
2019009,-16.000000,72.000000,5.375000
2019010,-8.000000,72.000000,5.375000
2019011,0.000000,72.000000,5.375000
2019012,8.000000,72.000000,5.375000
2019013,16.000000,72.000000,5.375000
2019014,24.000000,72.000000,5.375000
2019015,32.000000,72.000000,5.375000
2019016,40.000000,72.000000,5.375000
2019017,48.000000,72.000000,5.375000
2019018,56.000000,72.000000,5.375000
2019019,64.000000,72.000000,5.375000
2019020,72.000000,72.000000,5.375000
2019021,80.000000,72.000000,5.375000
2020001,-80.000000,80.000000,5.375000
2020002,-72.000000,80.000000,5.375000
2020003,-64.000000,80.000000,5.375000
2020004,-56.000000,80.000000,5.375000
2020005,-48.000000,80.000000,5.375000
2020006,-40.000000,80.000000,5.375000
2020007,-32.000000,80.000000,5.375000
2020008,-24.000000,80.000000,5.375000
2020009,-16.000000,80.000000,5.375000
2020010,-8.000000,80.000000,5.375000
2020011,0.000000,80.000000,5.375000
2020012,8.000000,80.000000,5.375000
2020013,16.000000,80.000000,5.375000
2020014,24.000000,80.000000,5.375000
2020015,32.000000,80.000000,5.375000
2020016,40.000000,80.000000,5.375000
2020017,48.000000,80.000000,5.375000
2020018,56.000000,80.000000,5.375000
2020019,64.000000,80.000000,5.375000
2020020,72.000000,80.000000,5.375000
2020021,80.000000,80.000000,5.375000
3000001,-80.000000,-80.000000,10.750000
3000002,-72.000000,-80.000000,10.750000
3000003,-64.000000,-80.000000,10.750000
3000004,-56.000000,-80.000000,10.750000
3000005,-48.000000,-80.000000,10.750000
3000006,-40.000000,-80.000000,10.750000
3000007,-32.000000,-80.000000,10.750000
3000008,-24.000000,-80.000000,10.750000
3000009,-16.000000,-80.000000,10.750000
3000010,-8.000000,-80.000000,10.750000
3000011,0.000000,-80.000000,10.750000
3000012,8.000000,-80.000000,10.750000
3000013,16.000000,-80.000000,10.750000
3000014,24.000000,-80.000000,10.750000
3000015,32.000000,-80.000000,10.750000
3000016,40.000000,-80.000000,10.750000
3000017,48.000000,-80.000000,10.750000
3000018,56.000000,-80.000000,10.750000
3000019,64.000000,-80.000000,10.750000
3000020,72.000000,-80.000000,10.750000
3000021,80.000000,-80.000000,10.750000
3001001,-80.000000,-72.000000,10.750000
3001002,-72.000000,-72.000000,10.750000
3001003,-64.000000,-72.000000,10.750000
3001004,-56.000000,-72.000000,10.750000
3001005,-48.000000,-72.000000,10.750000
3001006,-40.000000,-72.000000,10.750000
3001007,-32.000000,-72.000000,10.750000
3001008,-24.000000,-72.000000,10.750000
3001009,-16.000000,-72.000000,10.750000
3001010,-8.000000,-72.000000,10.750000
3001011,0.000000,-72.000000,10.750000
3001012,8.000000,-72.000000,10.750000
3001013,16.000000,-72.000000,10.750000
3001014,24.000000,-72.000000,10.750000
3001015,32.000000,-72.000000,10.750000
3001016,40.000000,-72.000000,10.750000
3001017,48.000000,-72.000000,10.750000
3001018,56.000000,-72.000000,10.750000
3001019,64.000000,-72.000000,10.750000
3001020,72.000000,-72.000000,10.750000
3001021,80.000000,-72.000000,10.750000
3002001,-80.000000,-64.000000,10.750000
3002002,-72.000000,-64.000000,10.750000
3002003,-64.000000,-64.000000,10.750000
3002004,-56.000000,-64.000000,10.750000
3002005,-48.000000,-64.000000,10.750000
3002006,-40.000000,-64.000000,10.750000
3002007,-32.000000,-64.000000,10.750000
3002008,-24.000000,-64.000000,10.750000
3002009,-16.000000,-64.000000,10.750000
3002010,-8.000000,-64.000000,10.750000
3002011,0.000000,-64.000000,10.750000
3002012,8.000000,-64.000000,10.750000
3002013,16.000000,-64.000000,10.750000
3002014,24.000000,-64.000000,10.750000
3002015,32.000000,-64.000000,10.750000
3002016,40.000000,-64.000000,10.750000
3002017,48.000000,-64.000000,10.750000
3002018,56.000000,-64.000000,10.750000
3002019,64.000000,-64.000000,10.750000
3002020,72.000000,-64.000000,10.750000
3002021,80.000000,-64.000000,10.750000
3003001,-80.000000,-56.000000,10.750000
3003002,-72.000000,-56.000000,10.750000
3003003,-64.000000,-56.000000,10.750000
3003004,-56.000000,-56.000000,10.750000
3003005,-48.000000,-56.000000,10.750000
3003006,-40.000000,-56.000000,10.750000
3003007,-32.000000,-56.000000,10.750000
3003008,-24.000000,-56.000000,10.750000
3003009,-16.000000,-56.000000,10.750000
3003010,-8.000000,-56.000000,10.750000
3003011,0.000000,-56.000000,10.750000
3003012,8.000000,-56.000000,10.750000
3003013,16.000000,-56.000000,10.750000
3003014,24.000000,-56.000000,10.750000
3003015,32.000000,-56.000000,10.750000
3003016,40.000000,-56.000000,10.750000
3003017,48.000000,-56.000000,10.750000
3003018,56.000000,-56.000000,10.750000
3003019,64.000000,-56.000000,10.750000
3003020,72.000000,-56.000000,10.750000
3003021,80.000000,-56.000000,10.750000
3004001,-80.000000,-48.000000,10.750000
3004002,-72.000000,-48.000000,10.750000
3004003,-64.000000,-48.000000,10.750000
3004004,-56.000000,-48.000000,10.750000
3004005,-48.000000,-48.000000,10.750000
3004006,-40.000000,-48.000000,10.750000
3004007,-32.000000,-48.000000,10.750000
3004008,-24.000000,-48.000000,10.750000
3004009,-16.000000,-48.000000,10.750000
3004010,-8.000000,-48.000000,10.750000
3004011,0.000000,-48.000000,10.750000
3004012,8.000000,-48.000000,10.750000
3004013,16.000000,-48.000000,10.750000
3004014,24.000000,-48.000000,10.750000
3004015,32.000000,-48.000000,10.750000
3004016,40.000000,-48.000000,10.750000
3004017,48.000000,-48.000000,10.750000
3004018,56.000000,-48.000000,10.750000
3004019,64.000000,-48.000000,10.750000
3004020,72.000000,-48.000000,10.750000
3004021,80.000000,-48.000000,10.750000
3005001,-80.000000,-40.000000,10.750000
3005002,-72.000000,-40.000000,10.750000
3005003,-64.000000,-40.000000,10.750000
3005004,-56.000000,-40.000000,10.750000
3005005,-48.000000,-40.000000,10.750000
3005006,-40.000000,-40.000000,10.750000
3005007,-32.000000,-40.000000,10.750000
3005008,-24.000000,-40.000000,10.750000
3005009,-16.000000,-40.000000,10.750000
3005010,-8.000000,-40.000000,10.750000
3005011,0.000000,-40.000000,10.750000
3005012,8.000000,-40.000000,10.750000
3005013,16.000000,-40.000000,10.750000
3005014,24.000000,-40.000000,10.750000
3005015,32.000000,-40.000000,10.750000
3005016,40.000000,-40.000000,10.750000
3005017,48.000000,-40.000000,10.750000
3005018,56.000000,-40.000000,10.750000
3005019,64.000000,-40.000000,10.750000
3005020,72.000000,-40.000000,10.750000
3005021,80.000000,-40.000000,10.750000
3006001,-80.000000,-32.000000,10.750000
3006002,-72.000000,-32.000000,10.750000
3006003,-64.000000,-32.000000,10.750000
3006004,-56.000000,-32.000000,10.750000
3006005,-48.000000,-32.000000,10.750000
3006006,-40.000000,-32.000000,10.750000
3006007,-32.000000,-32.000000,10.750000
3006008,-24.000000,-32.000000,10.750000
3006009,-16.000000,-32.000000,10.750000
3006010,-8.000000,-32.000000,10.750000
3006011,0.000000,-32.000000,10.750000
3006012,8.000000,-32.000000,10.750000
3006013,16.000000,-32.000000,10.750000
3006014,24.000000,-32.000000,10.750000
3006015,32.000000,-32.000000,10.750000
3006016,40.000000,-32.000000,10.750000
3006017,48.000000,-32.000000,10.750000
3006018,56.000000,-32.000000,10.750000
3006019,64.000000,-32.000000,10.750000
3006020,72.000000,-32.000000,10.750000
3006021,80.000000,-32.000000,10.750000
3007001,-80.000000,-24.000000,10.750000
3007002,-72.000000,-24.000000,10.750000
3007003,-64.000000,-24.000000,10.750000
3007004,-56.000000,-24.000000,10.750000
3007005,-48.000000,-24.000000,10.750000
3007006,-40.000000,-24.000000,10.750000
3007007,-32.000000,-24.000000,10.750000
3007008,-24.000000,-24.000000,10.750000
3007009,-16.000000,-24.000000,10.750000
3007010,-8.000000,-24.000000,10.750000
3007011,0.000000,-24.000000,10.750000
3007012,8.000000,-24.000000,10.750000
3007013,16.000000,-24.000000,10.750000
3007014,24.000000,-24.000000,10.750000
3007015,32.000000,-24.000000,10.750000
3007016,40.000000,-24.000000,10.750000
3007017,48.000000,-24.000000,10.750000
3007018,56.000000,-24.000000,10.750000
3007019,64.000000,-24.000000,10.750000
3007020,72.000000,-24.000000,10.750000
3007021,80.000000,-24.000000,10.750000
3008001,-80.000000,-16.000000,10.750000
3008002,-72.000000,-16.000000,10.750000
3008003,-64.000000,-16.000000,10.750000
3008004,-56.000000,-16.000000,10.750000
3008005,-48.000000,-16.000000,10.750000
3008006,-40.000000,-16.000000,10.750000
3008007,-32.000000,-16.000000,10.750000
3008008,-24.000000,-16.000000,10.750000
3008009,-16.000000,-16.000000,10.750000
3008013,16.000000,-16.000000,10.750000
3008014,24.000000,-16.000000,10.750000
3008015,32.000000,-16.000000,10.750000
3008016,40.000000,-16.000000,10.750000
3008017,48.000000,-16.000000,10.750000
3008018,56.000000,-16.000000,10.750000
3008019,64.000000,-16.000000,10.750000
3008020,72.000000,-16.000000,10.750000
3008021,80.000000,-16.000000,10.750000
3009001,-80.000000,-8.000000,10.750000
3009002,-72.000000,-8.000000,10.750000
3009003,-64.000000,-8.000000,10.750000
3009004,-56.000000,-8.000000,10.750000
3009005,-48.000000,-8.000000,10.750000
3009006,-40.000000,-8.000000,10.750000
3009007,-32.000000,-8.000000,10.750000
3009008,-24.000000,-8.000000,10.750000
3009014,24.000000,-8.000000,10.750000
3009015,32.000000,-8.000000,10.750000
3009016,40.000000,-8.000000,10.750000
3009017,48.000000,-8.000000,10.750000
3009018,56.000000,-8.000000,10.750000
3009019,64.000000,-8.000000,10.750000
3009020,72.000000,-8.000000,10.750000
3009021,80.000000,-8.000000,10.750000
3010001,-80.000000,0.000000,10.750000
3010002,-72.000000,0.000000,10.750000
3010003,-64.000000,0.000000,10.750000
3010004,-56.000000,0.000000,10.750000
3010005,-48.000000,0.000000,10.750000
3010006,-40.000000,0.000000,10.750000
3010007,-32.000000,0.000000,10.750000
3010008,-24.000000,0.000000,10.750000
3010014,24.000000,0.000000,10.750000
3010015,32.000000,0.000000,10.750000
3010016,40.000000,0.000000,10.750000
3010017,48.000000,0.000000,10.750000
3010018,56.000000,0.000000,10.750000
3010019,64.000000,0.000000,10.750000
3010020,72.000000,0.000000,10.750000
3010021,80.000000,0.000000,10.750000
3011001,-80.000000,8.000000,10.750000
3011002,-72.000000,8.000000,10.750000
3011003,-64.000000,8.000000,10.750000
3011004,-56.000000,8.000000,10.750000
3011005,-48.000000,8.000000,10.750000
3011006,-40.000000,8.000000,10.750000
3011007,-32.000000,8.000000,10.750000
3011008,-24.000000,8.000000,10.750000
3011014,24.000000,8.000000,10.750000
3011015,32.000000,8.000000,10.750000
3011016,40.000000,8.000000,10.750000
3011017,48.000000,8.000000,10.750000
3011018,56.000000,8.000000,10.750000
3011019,64.000000,8.000000,10.750000
3011020,72.000000,8.000000,10.750000
3011021,80.000000,8.000000,10.750000
3012001,-80.000000,16.000000,10.750000
3012002,-72.000000,16.000000,10.750000
3012003,-64.000000,16.000000,10.750000
3012004,-56.000000,16.000000,10.750000
3012005,-48.000000,16.000000,10.750000
3012006,-40.000000,16.000000,10.750000
3012007,-32.000000,16.000000,10.750000
3012008,-24.000000,16.000000,10.750000
3012009,-16.000000,16.000000,10.750000
3012013,16.000000,16.000000,10.750000
3012014,24.000000,16.000000,10.750000
3012015,32.000000,16.000000,10.750000
3012016,40.000000,16.000000,10.750000
3012017,48.000000,16.000000,10.750000
3012018,56.000000,16.000000,10.750000
3012019,64.000000,16.000000,10.750000
3012020,72.000000,16.000000,10.750000
3012021,80.000000,16.000000,10.750000
3013001,-80.000000,24.000000,10.750000
3013002,-72.000000,24.000000,10.750000
3013003,-64.000000,24.000000,10.750000
3013004,-56.000000,24.000000,10.750000
3013005,-48.000000,24.000000,10.750000
3013006,-40.000000,24.000000,10.750000
3013007,-32.000000,24.000000,10.750000
3013008,-24.000000,24.000000,10.750000
3013009,-16.000000,24.000000,10.750000
3013010,-8.000000,24.000000,10.750000
3013011,0.000000,24.000000,10.750000
3013012,8.000000,24.000000,10.750000
3013013,16.000000,24.000000,10.750000
3013014,24.000000,24.000000,10.750000
3013015,32.000000,24.000000,10.750000
3013016,40.000000,24.000000,10.750000
3013017,48.000000,24.000000,10.750000
3013018,56.000000,24.000000,10.750000
3013019,64.000000,24.000000,10.750000
3013020,72.000000,24.000000,10.750000
3013021,80.000000,24.000000,10.750000
3014001,-80.000000,32.000000,10.750000
3014002,-72.000000,32.000000,10.750000
3014003,-64.000000,32.000000,10.750000
3014004,-56.000000,32.000000,10.750000
3014005,-48.000000,32.000000,10.750000
3014006,-40.000000,32.000000,10.750000
3014007,-32.000000,32.000000,10.750000
3014008,-24.000000,32.000000,10.750000
3014009,-16.000000,32.000000,10.750000
3014010,-8.000000,32.000000,10.750000
3014011,0.000000,32.000000,10.750000
3014012,8.000000,32.000000,10.750000
3014013,16.000000,32.000000,10.750000
3014014,24.000000,32.000000,10.750000
3014015,32.000000,32.000000,10.750000
3014016,40.000000,32.000000,10.750000
3014017,48.000000,32.000000,10.750000
3014018,56.000000,32.000000,10.750000
3014019,64.000000,32.000000,10.750000
3014020,72.000000,32.000000,10.750000
3014021,80.000000,32.000000,10.750000
3015001,-80.000000,40.000000,10.750000
3015002,-72.000000,40.000000,10.750000
3015003,-64.000000,40.000000,10.750000
3015004,-56.000000,40.000000,10.750000
3015005,-48.000000,40.000000,10.750000
3015006,-40.000000,40.000000,10.750000
3015007,-32.000000,40.000000,10.750000
3015008,-24.000000,40.000000,10.750000
3015009,-16.000000,40.000000,10.750000
3015010,-8.000000,40.000000,10.750000
3015011,0.000000,40.000000,10.750000
3015012,8.000000,40.000000,10.750000
3015013,16.000000,40.000000,10.750000
3015014,24.000000,40.000000,10.750000
3015015,32.000000,40.000000,10.750000
3015016,40.000000,40.000000,10.750000
3015017,48.000000,40.000000,10.750000
3015018,56.000000,40.000000,10.750000
3015019,64.000000,40.000000,10.750000
3015020,72.000000,40.000000,10.750000
3015021,80.000000,40.000000,10.750000
3016001,-80.000000,48.000000,10.750000
3016002,-72.000000,48.000000,10.750000
3016003,-64.000000,48.000000,10.750000
3016004,-56.000000,48.000000,10.750000
3016005,-48.000000,48.000000,10.750000
3016006,-40.000000,48.000000,10.750000
3016007,-32.000000,48.000000,10.750000
3016008,-24.000000,48.000000,10.750000
3016009,-16.000000,48.000000,10.750000
3016010,-8.000000,48.000000,10.750000
3016011,0.000000,48.000000,10.750000
3016012,8.000000,48.000000,10.750000
3016013,16.000000,48.000000,10.750000
3016014,24.000000,48.000000,10.750000
3016015,32.000000,48.000000,10.750000
3016016,40.000000,48.000000,10.750000
3016017,48.000000,48.000000,10.750000
3016018,56.000000,48.000000,10.750000
3016019,64.000000,48.000000,10.750000
3016020,72.000000,48.000000,10.750000
3016021,80.000000,48.000000,10.750000
3017001,-80.000000,56.000000,10.750000
3017002,-72.000000,56.000000,10.750000
3017003,-64.000000,56.000000,10.750000
3017004,-56.000000,56.000000,10.750000
3017005,-48.000000,56.000000,10.750000
3017006,-40.000000,56.000000,10.750000
3017007,-32.000000,56.000000,10.750000
3017008,-24.000000,56.000000,10.750000
3017009,-16.000000,56.000000,10.750000
3017010,-8.000000,56.000000,10.750000
3017011,0.000000,56.000000,10.750000
3017012,8.000000,56.000000,10.750000
3017013,16.000000,56.000000,10.750000
3017014,24.000000,56.000000,10.750000
3017015,32.000000,56.000000,10.750000
3017016,40.000000,56.000000,10.750000
3017017,48.000000,56.000000,10.750000
3017018,56.000000,56.000000,10.750000
3017019,64.000000,56.000000,10.750000
3017020,72.000000,56.000000,10.750000
3017021,80.000000,56.000000,10.750000
3018001,-80.000000,64.000000,10.750000
3018002,-72.000000,64.000000,10.750000
3018003,-64.000000,64.000000,10.750000
3018004,-56.000000,64.000000,10.750000
3018005,-48.000000,64.000000,10.750000
3018006,-40.000000,64.000000,10.750000
3018007,-32.000000,64.000000,10.750000
3018008,-24.000000,64.000000,10.750000
3018009,-16.000000,64.000000,10.750000
3018010,-8.000000,64.000000,10.750000
3018011,0.000000,64.000000,10.750000
3018012,8.000000,64.000000,10.750000
3018013,16.000000,64.000000,10.750000
3018014,24.000000,64.000000,10.750000
3018015,32.000000,64.000000,10.750000
3018016,40.000000,64.000000,10.750000
3018017,48.000000,64.000000,10.750000
3018018,56.000000,64.000000,10.750000
3018019,64.000000,64.000000,10.750000
3018020,72.000000,64.000000,10.750000
3018021,80.000000,64.000000,10.750000
3019001,-80.000000,72.000000,10.750000
3019002,-72.000000,72.000000,10.750000
3019003,-64.000000,72.000000,10.750000
3019004,-56.000000,72.000000,10.750000
3019005,-48.000000,72.000000,10.750000
3019006,-40.000000,72.000000,10.750000
3019007,-32.000000,72.000000,10.750000
3019008,-24.000000,72.000000,10.750000
3019009,-16.000000,72.000000,10.750000
3019010,-8.000000,72.000000,10.750000
3019011,0.000000,72.000000,10.750000
3019012,8.000000,72.000000,10.750000
3019013,16.000000,72.000000,10.750000
3019014,24.000000,72.000000,10.750000
3019015,32.000000,72.000000,10.750000
3019016,40.000000,72.000000,10.750000
3019017,48.000000,72.000000,10.750000
3019018,56.000000,72.000000,10.750000
3019019,64.000000,72.000000,10.750000
3019020,72.000000,72.000000,10.750000
3019021,80.000000,72.000000,10.750000
3020001,-80.000000,80.000000,10.750000
3020002,-72.000000,80.000000,10.750000
3020003,-64.000000,80.000000,10.750000
3020004,-56.000000,80.000000,10.750000
3020005,-48.000000,80.000000,10.750000
3020006,-40.000000,80.000000,10.750000
3020007,-32.000000,80.000000,10.750000
3020008,-24.000000,80.000000,10.750000
3020009,-16.000000,80.000000,10.750000
3020010,-8.000000,80.000000,10.750000
3020011,0.000000,80.000000,10.750000
3020012,8.000000,80.000000,10.750000
3020013,16.000000,80.000000,10.750000
3020014,24.000000,80.000000,10.750000
3020015,32.000000,80.000000,10.750000
3020016,40.000000,80.000000,10.750000
3020017,48.000000,80.000000,10.750000
3020018,56.000000,80.000000,10.750000
3020019,64.000000,80.000000,10.750000
3020020,72.000000,80.000000,10.750000
3020021,80.000000,80.000000,10.750000
4000001,-80.000000,-80.000000,10.750000
4000002,-72.000000,-80.000000,10.750000
4000003,-64.000000,-80.000000,10.750000
4000004,-56.000000,-80.000000,10.750000
4000005,-48.000000,-80.000000,10.750000
4000006,-40.000000,-80.000000,10.750000
4000007,-32.000000,-80.000000,10.750000
4000008,-24.000000,-80.000000,10.750000
4000009,-16.000000,-80.000000,10.750000
4000010,-8.000000,-80.000000,10.750000
4000011,0.000000,-80.000000,10.750000
4000012,8.000000,-80.000000,10.750000
4000013,16.000000,-80.000000,10.750000
4000014,24.000000,-80.000000,10.750000
4000015,32.000000,-80.000000,10.750000
4000016,40.000000,-80.000000,10.750000
4000017,48.000000,-80.000000,10.750000
4000018,56.000000,-80.000000,10.750000
4000019,64.000000,-80.000000,10.750000
4000020,72.000000,-80.000000,10.750000
4000021,80.000000,-80.000000,10.750000
4001001,-80.000000,-72.000000,10.750000
4001002,-72.000000,-72.000000,10.750000
4001003,-64.000000,-72.000000,10.750000
4001004,-56.000000,-72.000000,10.750000
4001005,-48.000000,-72.000000,10.750000
4001006,-40.000000,-72.000000,10.750000
4001007,-32.000000,-72.000000,10.750000
4001008,-24.000000,-72.000000,10.750000
4001009,-16.000000,-72.000000,10.750000
4001010,-8.000000,-72.000000,10.750000
4001011,0.000000,-72.000000,10.750000
4001012,8.000000,-72.000000,10.750000
4001013,16.000000,-72.000000,10.750000
4001014,24.000000,-72.000000,10.750000
4001015,32.000000,-72.000000,10.750000
4001016,40.000000,-72.000000,10.750000
4001017,48.000000,-72.000000,10.750000
4001018,56.000000,-72.000000,10.750000
4001019,64.000000,-72.000000,10.750000
4001020,72.000000,-72.000000,10.750000
4001021,80.000000,-72.000000,10.750000
4002001,-80.000000,-64.000000,10.750000
4002002,-72.000000,-64.000000,10.750000
4002003,-64.000000,-64.000000,10.750000
4002004,-56.000000,-64.000000,10.750000
4002005,-48.000000,-64.000000,10.750000
4002006,-40.000000,-64.000000,10.750000
4002007,-32.000000,-64.000000,10.750000
4002008,-24.000000,-64.000000,10.750000
4002009,-16.000000,-64.000000,10.750000
4002010,-8.000000,-64.000000,10.750000
4002011,0.000000,-64.000000,10.750000
4002012,8.000000,-64.000000,10.750000
4002013,16.000000,-64.000000,10.750000
4002014,24.000000,-64.000000,10.750000
4002015,32.000000,-64.000000,10.750000
4002016,40.000000,-64.000000,10.750000
4002017,48.000000,-64.000000,10.750000
4002018,56.000000,-64.000000,10.750000
4002019,64.000000,-64.000000,10.750000
4002020,72.000000,-64.000000,10.750000
4002021,80.000000,-64.000000,10.750000
4003001,-80.000000,-56.000000,10.750000
4003002,-72.000000,-56.000000,10.750000
4003003,-64.000000,-56.000000,10.750000
4003004,-56.000000,-56.000000,10.750000
4003005,-48.000000,-56.000000,10.750000
4003006,-40.000000,-56.000000,10.750000
4003007,-32.000000,-56.000000,10.750000
4003008,-24.000000,-56.000000,10.750000
4003009,-16.000000,-56.000000,10.750000
4003010,-8.000000,-56.000000,10.750000
4003011,0.000000,-56.000000,10.750000
4003012,8.000000,-56.000000,10.750000
4003013,16.000000,-56.000000,10.750000
4003014,24.000000,-56.000000,10.750000
4003015,32.000000,-56.000000,10.750000
4003016,40.000000,-56.000000,10.750000
4003017,48.000000,-56.000000,10.750000
4003018,56.000000,-56.000000,10.750000
4003019,64.000000,-56.000000,10.750000
4003020,72.000000,-56.000000,10.750000
4003021,80.000000,-56.000000,10.750000
4004001,-80.000000,-48.000000,10.750000
4004002,-72.000000,-48.000000,10.750000
4004003,-64.000000,-48.000000,10.750000
4004004,-56.000000,-48.000000,10.750000
4004005,-48.000000,-48.000000,10.750000
4004006,-40.000000,-48.000000,10.750000
4004007,-32.000000,-48.000000,10.750000
4004008,-24.000000,-48.000000,10.750000
4004009,-16.000000,-48.000000,10.750000
4004013,16.000000,-48.000000,10.750000
4004014,24.000000,-48.000000,10.750000
4004015,32.000000,-48.000000,10.750000
4004016,40.000000,-48.000000,10.750000
4004017,48.000000,-48.000000,10.750000
4004018,56.000000,-48.000000,10.750000
4004019,64.000000,-48.000000,10.750000
4004020,72.000000,-48.000000,10.750000
4004021,80.000000,-48.000000,10.750000
4005001,-80.000000,-40.000000,10.750000
4005002,-72.000000,-40.000000,10.750000
4005003,-64.000000,-40.000000,10.750000
4005004,-56.000000,-40.000000,10.750000
4005005,-48.000000,-40.000000,10.750000
4005006,-40.000000,-40.000000,10.750000
4005007,-32.000000,-40.000000,10.750000
4005015,32.000000,-40.000000,10.750000
4005016,40.000000,-40.000000,10.750000
4005017,48.000000,-40.000000,10.750000
4005018,56.000000,-40.000000,10.750000
4005019,64.000000,-40.000000,10.750000
4005020,72.000000,-40.000000,10.750000
4005021,80.000000,-40.000000,10.750000
4006001,-80.000000,-32.000000,10.750000
4006002,-72.000000,-32.000000,10.750000
4006003,-64.000000,-32.000000,10.750000
4006004,-56.000000,-32.000000,10.750000
4006005,-48.000000,-32.000000,10.750000
4006006,-40.000000,-32.000000,10.750000
4006016,40.000000,-32.000000,10.750000
4006017,48.000000,-32.000000,10.750000
4006018,56.000000,-32.000000,10.750000
4006019,64.000000,-32.000000,10.750000
4006020,72.000000,-32.000000,10.750000
4006021,80.000000,-32.000000,10.750000
4007001,-80.000000,-24.000000,10.750000
4007002,-72.000000,-24.000000,10.750000
4007003,-64.000000,-24.000000,10.750000
4007004,-56.000000,-24.000000,10.750000
4007005,-48.000000,-24.000000,10.750000
4007017,48.000000,-24.000000,10.750000
4007018,56.000000,-24.000000,10.750000
4007019,64.000000,-24.000000,10.750000
4007020,72.000000,-24.000000,10.750000
4007021,80.000000,-24.000000,10.750000
4008001,-80.000000,-16.000000,10.750000
4008002,-72.000000,-16.000000,10.750000
4008003,-64.000000,-16.000000,10.750000
4008004,-56.000000,-16.000000,10.750000
4008005,-48.000000,-16.000000,10.750000
4008017,48.000000,-16.000000,10.750000
4008018,56.000000,-16.000000,10.750000
4008019,64.000000,-16.000000,10.750000
4008020,72.000000,-16.000000,10.750000
4008021,80.000000,-16.000000,10.750000
4009001,-80.000000,-8.000000,10.750000
4009002,-72.000000,-8.000000,10.750000
4009003,-64.000000,-8.000000,10.750000
4009004,-56.000000,-8.000000,10.750000
4009018,56.000000,-8.000000,10.750000
4009019,64.000000,-8.000000,10.750000
4009020,72.000000,-8.000000,10.750000
4009021,80.000000,-8.000000,10.750000
4010001,-80.000000,0.000000,10.750000
4010002,-72.000000,0.000000,10.750000
4010003,-64.000000,0.000000,10.750000
4010004,-56.000000,0.000000,10.750000
4010018,56.000000,0.000000,10.750000
4010019,64.000000,0.000000,10.750000
4010020,72.000000,0.000000,10.750000
4010021,80.000000,0.000000,10.750000
4011001,-80.000000,8.000000,10.750000
4011002,-72.000000,8.000000,10.750000
4011003,-64.000000,8.000000,10.750000
4011004,-56.000000,8.000000,10.750000
4011018,56.000000,8.000000,10.750000
4011019,64.000000,8.000000,10.750000
4011020,72.000000,8.000000,10.750000
4011021,80.000000,8.000000,10.750000
4012001,-80.000000,16.000000,10.750000
4012002,-72.000000,16.000000,10.750000
4012003,-64.000000,16.000000,10.750000
4012004,-56.000000,16.000000,10.750000
4012005,-48.000000,16.000000,10.750000
4012017,48.000000,16.000000,10.750000
4012018,56.000000,16.000000,10.750000
4012019,64.000000,16.000000,10.750000
4012020,72.000000,16.000000,10.750000
4012021,80.000000,16.000000,10.750000
4013001,-80.000000,24.000000,10.750000
4013002,-72.000000,24.000000,10.750000
4013003,-64.000000,24.000000,10.750000
4013004,-56.000000,24.000000,10.750000
4013005,-48.000000,24.000000,10.750000
4013017,48.000000,24.000000,10.750000
4013018,56.000000,24.000000,10.750000
4013019,64.000000,24.000000,10.750000
4013020,72.000000,24.000000,10.750000
4013021,80.000000,24.000000,10.750000
4014001,-80.000000,32.000000,10.750000
4014002,-72.000000,32.000000,10.750000
4014003,-64.000000,32.000000,10.750000
4014004,-56.000000,32.000000,10.750000
4014005,-48.000000,32.000000,10.750000
4014006,-40.000000,32.000000,10.750000
4014016,40.000000,32.000000,10.750000
4014017,48.000000,32.000000,10.750000
4014018,56.000000,32.000000,10.750000
4014019,64.000000,32.000000,10.750000
4014020,72.000000,32.000000,10.750000
4014021,80.000000,32.000000,10.750000
4015001,-80.000000,40.000000,10.750000
4015002,-72.000000,40.000000,10.750000
4015003,-64.000000,40.000000,10.750000
4015004,-56.000000,40.000000,10.750000
4015005,-48.000000,40.000000,10.750000
4015006,-40.000000,40.000000,10.750000
4015007,-32.000000,40.000000,10.750000
4015015,32.000000,40.000000,10.750000
4015016,40.000000,40.000000,10.750000
4015017,48.000000,40.000000,10.750000
4015018,56.000000,40.000000,10.750000
4015019,64.000000,40.000000,10.750000
4015020,72.000000,40.000000,10.750000
4015021,80.000000,40.000000,10.750000
4016001,-80.000000,48.000000,10.750000
4016002,-72.000000,48.000000,10.750000
4016003,-64.000000,48.000000,10.750000
4016004,-56.000000,48.000000,10.750000
4016005,-48.000000,48.000000,10.750000
4016006,-40.000000,48.000000,10.750000
4016007,-32.000000,48.000000,10.750000
4016008,-24.000000,48.000000,10.750000
4016009,-16.000000,48.000000,10.750000
4016013,16.000000,48.000000,10.750000
4016014,24.000000,48.000000,10.750000
4016015,32.000000,48.000000,10.750000
4016016,40.000000,48.000000,10.750000
4016017,48.000000,48.000000,10.750000
4016018,56.000000,48.000000,10.750000
4016019,64.000000,48.000000,10.750000
4016020,72.000000,48.000000,10.750000
4016021,80.000000,48.000000,10.750000
4017001,-80.000000,56.000000,10.750000
4017002,-72.000000,56.000000,10.750000
4017003,-64.000000,56.000000,10.750000
4017004,-56.000000,56.000000,10.750000
4017005,-48.000000,56.000000,10.750000
4017006,-40.000000,56.000000,10.750000
4017007,-32.000000,56.000000,10.750000
4017008,-24.000000,56.000000,10.750000
4017009,-16.000000,56.000000,10.750000
4017010,-8.000000,56.000000,10.750000
4017011,0.000000,56.000000,10.750000
4017012,8.000000,56.000000,10.750000
4017013,16.000000,56.000000,10.750000
4017014,24.000000,56.000000,10.750000
4017015,32.000000,56.000000,10.750000
4017016,40.000000,56.000000,10.750000
4017017,48.000000,56.000000,10.750000
4017018,56.000000,56.000000,10.750000
4017019,64.000000,56.000000,10.750000
4017020,72.000000,56.000000,10.750000
4017021,80.000000,56.000000,10.750000
4018001,-80.000000,64.000000,10.750000
4018002,-72.000000,64.000000,10.750000
4018003,-64.000000,64.000000,10.750000
4018004,-56.000000,64.000000,10.750000
4018005,-48.000000,64.000000,10.750000
4018006,-40.000000,64.000000,10.750000
4018007,-32.000000,64.000000,10.750000
4018008,-24.000000,64.000000,10.750000
4018009,-16.000000,64.000000,10.750000
4018010,-8.000000,64.000000,10.750000
4018011,0.000000,64.000000,10.750000
4018012,8.000000,64.000000,10.750000
4018013,16.000000,64.000000,10.750000
4018014,24.000000,64.000000,10.750000
4018015,32.000000,64.000000,10.750000
4018016,40.000000,64.000000,10.750000
4018017,48.000000,64.000000,10.750000
4018018,56.000000,64.000000,10.750000
4018019,64.000000,64.000000,10.750000
4018020,72.000000,64.000000,10.750000
4018021,80.000000,64.000000,10.750000
4019001,-80.000000,72.000000,10.750000
4019002,-72.000000,72.000000,10.750000
4019003,-64.000000,72.000000,10.750000
4019004,-56.000000,72.000000,10.750000
4019005,-48.000000,72.000000,10.750000
4019006,-40.000000,72.000000,10.750000
4019007,-32.000000,72.000000,10.750000
4019008,-24.000000,72.000000,10.750000
4019009,-16.000000,72.000000,10.750000
4019010,-8.000000,72.000000,10.750000
4019011,0.000000,72.000000,10.750000
4019012,8.000000,72.000000,10.750000
4019013,16.000000,72.000000,10.750000
4019014,24.000000,72.000000,10.750000
4019015,32.000000,72.000000,10.750000
4019016,40.000000,72.000000,10.750000
4019017,48.000000,72.000000,10.750000
4019018,56.000000,72.000000,10.750000
4019019,64.000000,72.000000,10.750000
4019020,72.000000,72.000000,10.750000
4019021,80.000000,72.000000,10.750000
4020001,-80.000000,80.000000,10.750000
4020002,-72.000000,80.000000,10.750000
4020003,-64.000000,80.000000,10.750000
4020004,-56.000000,80.000000,10.750000
4020005,-48.000000,80.000000,10.750000
4020006,-40.000000,80.000000,10.750000
4020007,-32.000000,80.000000,10.750000
4020008,-24.000000,80.000000,10.750000
4020009,-16.000000,80.000000,10.750000
4020010,-8.000000,80.000000,10.750000
4020011,0.000000,80.000000,10.750000
4020012,8.000000,80.000000,10.750000
4020013,16.000000,80.000000,10.750000
4020014,24.000000,80.000000,10.750000
4020015,32.000000,80.000000,10.750000
4020016,40.000000,80.000000,10.750000
4020017,48.000000,80.000000,10.750000
4020018,56.000000,80.000000,10.750000
4020019,64.000000,80.000000,10.750000
4020020,72.000000,80.000000,10.750000
4020021,80.000000,80.000000,10.750000
5000001,-80.000000,-80.000000,14.750000
5000002,-72.000000,-80.000000,14.750000
5000003,-64.000000,-80.000000,14.750000
5000004,-56.000000,-80.000000,14.750000
5000005,-48.000000,-80.000000,14.750000
5000006,-40.000000,-80.000000,14.750000
5000007,-32.000000,-80.000000,14.750000
5000008,-24.000000,-80.000000,14.750000
5000009,-16.000000,-80.000000,14.750000
5000010,-8.000000,-80.000000,14.750000
5000011,0.000000,-80.000000,14.750000
5000012,8.000000,-80.000000,14.750000
5000013,16.000000,-80.000000,14.750000
5000014,24.000000,-80.000000,14.750000
5000015,32.000000,-80.000000,14.750000
5000016,40.000000,-80.000000,14.750000
5000017,48.000000,-80.000000,14.750000
5000018,56.000000,-80.000000,14.750000
5000019,64.000000,-80.000000,14.750000
5000020,72.000000,-80.000000,14.750000
5000021,80.000000,-80.000000,14.750000
5001001,-80.000000,-72.000000,14.750000
5001002,-72.000000,-72.000000,14.750000
5001003,-64.000000,-72.000000,14.750000
5001004,-56.000000,-72.000000,14.750000
5001005,-48.000000,-72.000000,14.750000
5001006,-40.000000,-72.000000,14.750000
5001007,-32.000000,-72.000000,14.750000
5001008,-24.000000,-72.000000,14.750000
5001009,-16.000000,-72.000000,14.750000
5001010,-8.000000,-72.000000,14.750000
5001011,0.000000,-72.000000,14.750000
5001012,8.000000,-72.000000,14.750000
5001013,16.000000,-72.000000,14.750000
5001014,24.000000,-72.000000,14.750000
5001015,32.000000,-72.000000,14.750000
5001016,40.000000,-72.000000,14.750000
5001017,48.000000,-72.000000,14.750000
5001018,56.000000,-72.000000,14.750000
5001019,64.000000,-72.000000,14.750000
5001020,72.000000,-72.000000,14.750000
5001021,80.000000,-72.000000,14.750000
5002001,-80.000000,-64.000000,14.750000
5002002,-72.000000,-64.000000,14.750000
5002003,-64.000000,-64.000000,14.750000
5002004,-56.000000,-64.000000,14.750000
5002005,-48.000000,-64.000000,14.750000
5002006,-40.000000,-64.000000,14.750000
5002007,-32.000000,-64.000000,14.750000
5002008,-24.000000,-64.000000,14.750000
5002009,-16.000000,-64.000000,14.750000
5002010,-8.000000,-64.000000,14.750000
5002011,0.000000,-64.000000,14.750000
5002012,8.000000,-64.000000,14.750000
5002013,16.000000,-64.000000,14.750000
5002014,24.000000,-64.000000,14.750000
5002015,32.000000,-64.000000,14.750000
5002016,40.000000,-64.000000,14.750000
5002017,48.000000,-64.000000,14.750000
5002018,56.000000,-64.000000,14.750000
5002019,64.000000,-64.000000,14.750000
5002020,72.000000,-64.000000,14.750000
5002021,80.000000,-64.000000,14.750000
5003001,-80.000000,-56.000000,14.750000
5003002,-72.000000,-56.000000,14.750000
5003003,-64.000000,-56.000000,14.750000
5003004,-56.000000,-56.000000,14.750000
5003005,-48.000000,-56.000000,14.750000
5003006,-40.000000,-56.000000,14.750000
5003007,-32.000000,-56.000000,14.750000
5003008,-24.000000,-56.000000,14.750000
5003009,-16.000000,-56.000000,14.750000
5003010,-8.000000,-56.000000,14.750000
5003011,0.000000,-56.000000,14.750000
5003012,8.000000,-56.000000,14.750000
5003013,16.000000,-56.000000,14.750000
5003014,24.000000,-56.000000,14.750000
5003015,32.000000,-56.000000,14.750000
5003016,40.000000,-56.000000,14.750000
5003017,48.000000,-56.000000,14.750000
5003018,56.000000,-56.000000,14.750000
5003019,64.000000,-56.000000,14.750000
5003020,72.000000,-56.000000,14.750000
5003021,80.000000,-56.000000,14.750000
5004001,-80.000000,-48.000000,14.750000
5004002,-72.000000,-48.000000,14.750000
5004003,-64.000000,-48.000000,14.750000
5004004,-56.000000,-48.000000,14.750000
5004005,-48.000000,-48.000000,14.750000
5004006,-40.000000,-48.000000,14.750000
5004007,-32.000000,-48.000000,14.750000
5004008,-24.000000,-48.000000,14.750000
5004009,-16.000000,-48.000000,14.750000
5004013,16.000000,-48.000000,14.750000
5004014,24.000000,-48.000000,14.750000
5004015,32.000000,-48.000000,14.750000
5004016,40.000000,-48.000000,14.750000
5004017,48.000000,-48.000000,14.750000
5004018,56.000000,-48.000000,14.750000
5004019,64.000000,-48.000000,14.750000
5004020,72.000000,-48.000000,14.750000
5004021,80.000000,-48.000000,14.750000
5005001,-80.000000,-40.000000,14.750000
5005002,-72.000000,-40.000000,14.750000
5005003,-64.000000,-40.000000,14.750000
5005004,-56.000000,-40.000000,14.750000
5005005,-48.000000,-40.000000,14.750000
5005006,-40.000000,-40.000000,14.750000
5005007,-32.000000,-40.000000,14.750000
5005015,32.000000,-40.000000,14.750000
5005016,40.000000,-40.000000,14.750000
5005017,48.000000,-40.000000,14.750000
5005018,56.000000,-40.000000,14.750000
5005019,64.000000,-40.000000,14.750000
5005020,72.000000,-40.000000,14.750000
5005021,80.000000,-40.000000,14.750000
5006001,-80.000000,-32.000000,14.750000
5006002,-72.000000,-32.000000,14.750000
5006003,-64.000000,-32.000000,14.750000
5006004,-56.000000,-32.000000,14.750000
5006005,-48.000000,-32.000000,14.750000
5006006,-40.000000,-32.000000,14.750000
5006016,40.000000,-32.000000,14.750000
5006017,48.000000,-32.000000,14.750000
5006018,56.000000,-32.000000,14.750000
5006019,64.000000,-32.000000,14.750000
5006020,72.000000,-32.000000,14.750000
5006021,80.000000,-32.000000,14.750000
5007001,-80.000000,-24.000000,14.750000
5007002,-72.000000,-24.000000,14.750000
5007003,-64.000000,-24.000000,14.750000
5007004,-56.000000,-24.000000,14.750000
5007005,-48.000000,-24.000000,14.750000
5007017,48.000000,-24.000000,14.750000
5007018,56.000000,-24.000000,14.750000
5007019,64.000000,-24.000000,14.750000
5007020,72.000000,-24.000000,14.750000
5007021,80.000000,-24.000000,14.750000
5008001,-80.000000,-16.000000,14.750000
5008002,-72.000000,-16.000000,14.750000
5008003,-64.000000,-16.000000,14.750000
5008004,-56.000000,-16.000000,14.750000
5008005,-48.000000,-16.000000,14.750000
5008017,48.000000,-16.000000,14.750000
5008018,56.000000,-16.000000,14.750000
5008019,64.000000,-16.000000,14.750000
5008020,72.000000,-16.000000,14.750000
5008021,80.000000,-16.000000,14.750000
5009001,-80.000000,-8.000000,14.750000
5009002,-72.000000,-8.000000,14.750000
5009003,-64.000000,-8.000000,14.750000
5009004,-56.000000,-8.000000,14.750000
5009018,56.000000,-8.000000,14.750000
5009019,64.000000,-8.000000,14.750000
5009020,72.000000,-8.000000,14.750000
5009021,80.000000,-8.000000,14.750000
5010001,-80.000000,0.000000,14.750000
5010002,-72.000000,0.000000,14.750000
5010003,-64.000000,0.000000,14.750000
5010004,-56.000000,0.000000,14.750000
5010018,56.000000,0.000000,14.750000
5010019,64.000000,0.000000,14.750000
5010020,72.000000,0.000000,14.750000
5010021,80.000000,0.000000,14.750000
5011001,-80.000000,8.000000,14.750000
5011002,-72.000000,8.000000,14.750000
5011003,-64.000000,8.000000,14.750000
5011004,-56.000000,8.000000,14.750000
5011018,56.000000,8.000000,14.750000
5011019,64.000000,8.000000,14.750000
5011020,72.000000,8.000000,14.750000
5011021,80.000000,8.000000,14.750000
5012001,-80.000000,16.000000,14.750000
5012002,-72.000000,16.000000,14.750000
5012003,-64.000000,16.000000,14.750000
5012004,-56.000000,16.000000,14.750000
5012005,-48.000000,16.000000,14.750000
5012017,48.000000,16.000000,14.750000
5012018,56.000000,16.000000,14.750000
5012019,64.000000,16.000000,14.750000
5012020,72.000000,16.000000,14.750000
5012021,80.000000,16.000000,14.750000
5013001,-80.000000,24.000000,14.750000
5013002,-72.000000,24.000000,14.750000
5013003,-64.000000,24.000000,14.750000
5013004,-56.000000,24.000000,14.750000
5013005,-48.000000,24.000000,14.750000
5013017,48.000000,24.000000,14.750000
5013018,56.000000,24.000000,14.750000
5013019,64.000000,24.000000,14.750000
5013020,72.000000,24.000000,14.750000
5013021,80.000000,24.000000,14.750000
5014001,-80.000000,32.000000,14.750000
5014002,-72.000000,32.000000,14.750000
5014003,-64.000000,32.000000,14.750000
5014004,-56.000000,32.000000,14.750000
5014005,-48.000000,32.000000,14.750000
5014006,-40.000000,32.000000,14.750000
5014016,40.000000,32.000000,14.750000
5014017,48.000000,32.000000,14.750000
5014018,56.000000,32.000000,14.750000
5014019,64.000000,32.000000,14.750000
5014020,72.000000,32.000000,14.750000
5014021,80.000000,32.000000,14.750000
5015001,-80.000000,40.000000,14.750000
5015002,-72.000000,40.000000,14.750000
5015003,-64.000000,40.000000,14.750000
5015004,-56.000000,40.000000,14.750000
5015005,-48.000000,40.000000,14.750000
5015006,-40.000000,40.000000,14.750000
5015007,-32.000000,40.000000,14.750000
5015015,32.000000,40.000000,14.750000
5015016,40.000000,40.000000,14.750000
5015017,48.000000,40.000000,14.750000
5015018,56.000000,40.000000,14.750000
5015019,64.000000,40.000000,14.750000
5015020,72.000000,40.000000,14.750000
5015021,80.000000,40.000000,14.750000
5016001,-80.000000,48.000000,14.750000
5016002,-72.000000,48.000000,14.750000
5016003,-64.000000,48.000000,14.750000
5016004,-56.000000,48.000000,14.750000
5016005,-48.000000,48.000000,14.750000
5016006,-40.000000,48.000000,14.750000
5016007,-32.000000,48.000000,14.750000
5016008,-24.000000,48.000000,14.750000
5016009,-16.000000,48.000000,14.750000
5016013,16.000000,48.000000,14.750000
5016014,24.000000,48.000000,14.750000
5016015,32.000000,48.000000,14.750000
5016016,40.000000,48.000000,14.750000
5016017,48.000000,48.000000,14.750000
5016018,56.000000,48.000000,14.750000
5016019,64.000000,48.000000,14.750000
5016020,72.000000,48.000000,14.750000
5016021,80.000000,48.000000,14.750000
5017001,-80.000000,56.000000,14.750000
5017002,-72.000000,56.000000,14.750000
5017003,-64.000000,56.000000,14.750000
5017004,-56.000000,56.000000,14.750000
5017005,-48.000000,56.000000,14.750000
5017006,-40.000000,56.000000,14.750000
5017007,-32.000000,56.000000,14.750000
5017008,-24.000000,56.000000,14.750000
5017009,-16.000000,56.000000,14.750000
5017010,-8.000000,56.000000,14.750000
5017011,0.000000,56.000000,14.750000
5017012,8.000000,56.000000,14.750000
5017013,16.000000,56.000000,14.750000
5017014,24.000000,56.000000,14.750000
5017015,32.000000,56.000000,14.750000
5017016,40.000000,56.000000,14.750000
5017017,48.000000,56.000000,14.750000
5017018,56.000000,56.000000,14.750000
5017019,64.000000,56.000000,14.750000
5017020,72.000000,56.000000,14.750000
5017021,80.000000,56.000000,14.750000
5018001,-80.000000,64.000000,14.750000
5018002,-72.000000,64.000000,14.750000
5018003,-64.000000,64.000000,14.750000
5018004,-56.000000,64.000000,14.750000
5018005,-48.000000,64.000000,14.750000
5018006,-40.000000,64.000000,14.750000
5018007,-32.000000,64.000000,14.750000
5018008,-24.000000,64.000000,14.750000
5018009,-16.000000,64.000000,14.750000
5018010,-8.000000,64.000000,14.750000
5018011,0.000000,64.000000,14.750000
5018012,8.000000,64.000000,14.750000
5018013,16.000000,64.000000,14.750000
5018014,24.000000,64.000000,14.750000
5018015,32.000000,64.000000,14.750000
5018016,40.000000,64.000000,14.750000
5018017,48.000000,64.000000,14.750000
5018018,56.000000,64.000000,14.750000
5018019,64.000000,64.000000,14.750000
5018020,72.000000,64.000000,14.750000
5018021,80.000000,64.000000,14.750000
5019001,-80.000000,72.000000,14.750000
5019002,-72.000000,72.000000,14.750000
5019003,-64.000000,72.000000,14.750000
5019004,-56.000000,72.000000,14.750000
5019005,-48.000000,72.000000,14.750000
5019006,-40.000000,72.000000,14.750000
5019007,-32.000000,72.000000,14.750000
5019008,-24.000000,72.000000,14.750000
5019009,-16.000000,72.000000,14.750000
5019010,-8.000000,72.000000,14.750000
5019011,0.000000,72.000000,14.750000
5019012,8.000000,72.000000,14.750000
5019013,16.000000,72.000000,14.750000
5019014,24.000000,72.000000,14.750000
5019015,32.000000,72.000000,14.750000
5019016,40.000000,72.000000,14.750000
5019017,48.000000,72.000000,14.750000
5019018,56.000000,72.000000,14.750000
5019019,64.000000,72.000000,14.750000
5019020,72.000000,72.000000,14.750000
5019021,80.000000,72.000000,14.750000
5020001,-80.000000,80.000000,14.750000
5020002,-72.000000,80.000000,14.750000
5020003,-64.000000,80.000000,14.750000
5020004,-56.000000,80.000000,14.750000
5020005,-48.000000,80.000000,14.750000
5020006,-40.000000,80.000000,14.750000
5020007,-32.000000,80.000000,14.750000
5020008,-24.000000,80.000000,14.750000
5020009,-16.000000,80.000000,14.750000
5020010,-8.000000,80.000000,14.750000
5020011,0.000000,80.000000,14.750000
5020012,8.000000,80.000000,14.750000
5020013,16.000000,80.000000,14.750000
5020014,24.000000,80.000000,14.750000
5020015,32.000000,80.000000,14.750000
5020016,40.000000,80.000000,14.750000
5020017,48.000000,80.000000,14.750000
5020018,56.000000,80.000000,14.750000
5020019,64.000000,80.000000,14.750000
5020020,72.000000,80.000000,14.750000
5020021,80.000000,80.000000,14.750000
6000001,-80.000000,-80.000000,18.750000
6000002,-72.000000,-80.000000,18.750000
6000003,-64.000000,-80.000000,18.750000
6000004,-56.000000,-80.000000,18.750000
6000005,-48.000000,-80.000000,18.750000
6000006,-40.000000,-80.000000,18.750000
6000007,-32.000000,-80.000000,18.750000
6000008,-24.000000,-80.000000,18.750000
6000009,-16.000000,-80.000000,18.750000
6000010,-8.000000,-80.000000,18.750000
6000011,0.000000,-80.000000,18.750000
6000012,8.000000,-80.000000,18.750000
6000013,16.000000,-80.000000,18.750000
6000014,24.000000,-80.000000,18.750000
6000015,32.000000,-80.000000,18.750000
6000016,40.000000,-80.000000,18.750000
6000017,48.000000,-80.000000,18.750000
6000018,56.000000,-80.000000,18.750000
6000019,64.000000,-80.000000,18.750000
6000020,72.000000,-80.000000,18.750000
6000021,80.000000,-80.000000,18.750000
6001001,-80.000000,-72.000000,18.750000
6001002,-72.000000,-72.000000,18.750000
6001003,-64.000000,-72.000000,18.750000
6001004,-56.000000,-72.000000,18.750000
6001005,-48.000000,-72.000000,18.750000
6001006,-40.000000,-72.000000,18.750000
6001007,-32.000000,-72.000000,18.750000
6001008,-24.000000,-72.000000,18.750000
6001009,-16.000000,-72.000000,18.750000
6001010,-8.000000,-72.000000,18.750000
6001011,0.000000,-72.000000,18.750000
6001012,8.000000,-72.000000,18.750000
6001013,16.000000,-72.000000,18.750000
6001014,24.000000,-72.000000,18.750000
6001015,32.000000,-72.000000,18.750000
6001016,40.000000,-72.000000,18.750000
6001017,48.000000,-72.000000,18.750000
6001018,56.000000,-72.000000,18.750000
6001019,64.000000,-72.000000,18.750000
6001020,72.000000,-72.000000,18.750000
6001021,80.000000,-72.000000,18.750000
6002001,-80.000000,-64.000000,18.750000
6002002,-72.000000,-64.000000,18.750000
6002003,-64.000000,-64.000000,18.750000
6002004,-56.000000,-64.000000,18.750000
6002005,-48.000000,-64.000000,18.750000
6002006,-40.000000,-64.000000,18.750000
6002007,-32.000000,-64.000000,18.750000
6002008,-24.000000,-64.000000,18.750000
6002009,-16.000000,-64.000000,18.750000
6002010,-8.000000,-64.000000,18.750000
6002011,0.000000,-64.000000,18.750000
6002012,8.000000,-64.000000,18.750000
6002013,16.000000,-64.000000,18.750000
6002014,24.000000,-64.000000,18.750000
6002015,32.000000,-64.000000,18.750000
6002016,40.000000,-64.000000,18.750000
6002017,48.000000,-64.000000,18.750000
6002018,56.000000,-64.000000,18.750000
6002019,64.000000,-64.000000,18.750000
6002020,72.000000,-64.000000,18.750000
6002021,80.000000,-64.000000,18.750000
6003001,-80.000000,-56.000000,18.750000
6003002,-72.000000,-56.000000,18.750000
6003003,-64.000000,-56.000000,18.750000
6003004,-56.000000,-56.000000,18.750000
6003005,-48.000000,-56.000000,18.750000
6003006,-40.000000,-56.000000,18.750000
6003007,-32.000000,-56.000000,18.750000
6003008,-24.000000,-56.000000,18.750000
6003009,-16.000000,-56.000000,18.750000
6003010,-8.000000,-56.000000,18.750000
6003011,0.000000,-56.000000,18.750000
6003012,8.000000,-56.000000,18.750000
6003013,16.000000,-56.000000,18.750000
6003014,24.000000,-56.000000,18.750000
6003015,32.000000,-56.000000,18.750000
6003016,40.000000,-56.000000,18.750000
6003017,48.000000,-56.000000,18.750000
6003018,56.000000,-56.000000,18.750000
6003019,64.000000,-56.000000,18.750000
6003020,72.000000,-56.000000,18.750000
6003021,80.000000,-56.000000,18.750000
6004001,-80.000000,-48.000000,18.750000
6004002,-72.000000,-48.000000,18.750000
6004003,-64.000000,-48.000000,18.750000
6004004,-56.000000,-48.000000,18.750000
6004005,-48.000000,-48.000000,18.750000
6004006,-40.000000,-48.000000,18.750000
6004007,-32.000000,-48.000000,18.750000
6004008,-24.000000,-48.000000,18.750000
6004009,-16.000000,-48.000000,18.750000
6004010,-8.000000,-48.000000,18.750000
6004011,0.000000,-48.000000,18.750000
6004012,8.000000,-48.000000,18.750000
6004013,16.000000,-48.000000,18.750000
6004014,24.000000,-48.000000,18.750000
6004015,32.000000,-48.000000,18.750000
6004016,40.000000,-48.000000,18.750000
6004017,48.000000,-48.000000,18.750000
6004018,56.000000,-48.000000,18.750000
6004019,64.000000,-48.000000,18.750000
6004020,72.000000,-48.000000,18.750000
6004021,80.000000,-48.000000,18.750000
6005001,-80.000000,-40.000000,18.750000
6005002,-72.000000,-40.000000,18.750000
6005003,-64.000000,-40.000000,18.750000
6005004,-56.000000,-40.000000,18.750000
6005005,-48.000000,-40.000000,18.750000
6005006,-40.000000,-40.000000,18.750000
6005007,-32.000000,-40.000000,18.750000
6005008,-24.000000,-40.000000,18.750000
6005009,-16.000000,-40.000000,18.750000
6005010,-8.000000,-40.000000,18.750000
6005011,0.000000,-40.000000,18.750000
6005012,8.000000,-40.000000,18.750000
6005013,16.000000,-40.000000,18.750000
6005014,24.000000,-40.000000,18.750000
6005015,32.000000,-40.000000,18.750000
6005016,40.000000,-40.000000,18.750000
6005017,48.000000,-40.000000,18.750000
6005018,56.000000,-40.000000,18.750000
6005019,64.000000,-40.000000,18.750000
6005020,72.000000,-40.000000,18.750000
6005021,80.000000,-40.000000,18.750000
6006001,-80.000000,-32.000000,18.750000
6006002,-72.000000,-32.000000,18.750000
6006003,-64.000000,-32.000000,18.750000
6006004,-56.000000,-32.000000,18.750000
6006005,-48.000000,-32.000000,18.750000
6006006,-40.000000,-32.000000,18.750000
6006007,-32.000000,-32.000000,18.750000
6006008,-24.000000,-32.000000,18.750000
6006009,-16.000000,-32.000000,18.750000
6006010,-8.000000,-32.000000,18.750000
6006011,0.000000,-32.000000,18.750000
6006012,8.000000,-32.000000,18.750000
6006013,16.000000,-32.000000,18.750000
6006014,24.000000,-32.000000,18.750000
6006015,32.000000,-32.000000,18.750000
6006016,40.000000,-32.000000,18.750000
6006017,48.000000,-32.000000,18.750000
6006018,56.000000,-32.000000,18.750000
6006019,64.000000,-32.000000,18.750000
6006020,72.000000,-32.000000,18.750000
6006021,80.000000,-32.000000,18.750000
6007001,-80.000000,-24.000000,18.750000
6007002,-72.000000,-24.000000,18.750000
6007003,-64.000000,-24.000000,18.750000
6007004,-56.000000,-24.000000,18.750000
6007005,-48.000000,-24.000000,18.750000
6007006,-40.000000,-24.000000,18.750000
6007007,-32.000000,-24.000000,18.750000
6007008,-24.000000,-24.000000,18.750000
6007009,-16.000000,-24.000000,18.750000
6007010,-8.000000,-24.000000,18.750000
6007011,0.000000,-24.000000,18.750000
6007012,8.000000,-24.000000,18.750000
6007013,16.000000,-24.000000,18.750000
6007014,24.000000,-24.000000,18.750000
6007015,32.000000,-24.000000,18.750000
6007016,40.000000,-24.000000,18.750000
6007017,48.000000,-24.000000,18.750000
6007018,56.000000,-24.000000,18.750000
6007019,64.000000,-24.000000,18.750000
6007020,72.000000,-24.000000,18.750000
6007021,80.000000,-24.000000,18.750000
6008001,-80.000000,-16.000000,18.750000
6008002,-72.000000,-16.000000,18.750000
6008003,-64.000000,-16.000000,18.750000
6008004,-56.000000,-16.000000,18.750000
6008005,-48.000000,-16.000000,18.750000
6008006,-40.000000,-16.000000,18.750000
6008007,-32.000000,-16.000000,18.750000
6008008,-24.000000,-16.000000,18.750000
6008009,-16.000000,-16.000000,18.750000
6008010,-8.000000,-16.000000,18.750000
6008011,0.000000,-16.000000,18.750000
6008012,8.000000,-16.000000,18.750000
6008013,16.000000,-16.000000,18.750000
6008014,24.000000,-16.000000,18.750000
6008015,32.000000,-16.000000,18.750000
6008016,40.000000,-16.000000,18.750000
6008017,48.000000,-16.000000,18.750000
6008018,56.000000,-16.000000,18.750000
6008019,64.000000,-16.000000,18.750000
6008020,72.000000,-16.000000,18.750000
6008021,80.000000,-16.000000,18.750000
6009001,-80.000000,-8.000000,18.750000
6009002,-72.000000,-8.000000,18.750000
6009003,-64.000000,-8.000000,18.750000
6009004,-56.000000,-8.000000,18.750000
6009005,-48.000000,-8.000000,18.750000
6009006,-40.000000,-8.000000,18.750000
6009007,-32.000000,-8.000000,18.750000
6009008,-24.000000,-8.000000,18.750000
6009009,-16.000000,-8.000000,18.750000
6009010,-8.000000,-8.000000,18.750000
6009011,0.000000,-8.000000,18.750000
6009012,8.000000,-8.000000,18.750000
6009013,16.000000,-8.000000,18.750000
6009014,24.000000,-8.000000,18.750000
6009015,32.000000,-8.000000,18.750000
6009016,40.000000,-8.000000,18.750000
6009017,48.000000,-8.000000,18.750000
6009018,56.000000,-8.000000,18.750000
6009019,64.000000,-8.000000,18.750000
6009020,72.000000,-8.000000,18.750000
6009021,80.000000,-8.000000,18.750000
6010001,-80.000000,0.000000,18.750000
6010002,-72.000000,0.000000,18.750000
6010003,-64.000000,0.000000,18.750000
6010004,-56.000000,0.000000,18.750000
6010005,-48.000000,0.000000,18.750000
6010006,-40.000000,0.000000,18.750000
6010007,-32.000000,0.000000,18.750000
6010008,-24.000000,0.000000,18.750000
6010009,-16.000000,0.000000,18.750000
6010010,-8.000000,0.000000,18.750000
6010011,0.000000,0.000000,18.750000
6010012,8.000000,0.000000,18.750000
6010013,16.000000,0.000000,18.750000
6010014,24.000000,0.000000,18.750000
6010015,32.000000,0.000000,18.750000
6010016,40.000000,0.000000,18.750000
6010017,48.000000,0.000000,18.750000
6010018,56.000000,0.000000,18.750000
6010019,64.000000,0.000000,18.750000
6010020,72.000000,0.000000,18.750000
6010021,80.000000,0.000000,18.750000
6011001,-80.000000,8.000000,18.750000
6011002,-72.000000,8.000000,18.750000
6011003,-64.000000,8.000000,18.750000
6011004,-56.000000,8.000000,18.750000
6011005,-48.000000,8.000000,18.750000
6011006,-40.000000,8.000000,18.750000
6011007,-32.000000,8.000000,18.750000
6011008,-24.000000,8.000000,18.750000
6011009,-16.000000,8.000000,18.750000
6011010,-8.000000,8.000000,18.750000
6011011,0.000000,8.000000,18.750000
6011012,8.000000,8.000000,18.750000
6011013,16.000000,8.000000,18.750000
6011014,24.000000,8.000000,18.750000
6011015,32.000000,8.000000,18.750000
6011016,40.000000,8.000000,18.750000
6011017,48.000000,8.000000,18.750000
6011018,56.000000,8.000000,18.750000
6011019,64.000000,8.000000,18.750000
6011020,72.000000,8.000000,18.750000
6011021,80.000000,8.000000,18.750000
6012001,-80.000000,16.000000,18.750000
6012002,-72.000000,16.000000,18.750000
6012003,-64.000000,16.000000,18.750000
6012004,-56.000000,16.000000,18.750000
6012005,-48.000000,16.000000,18.750000
6012006,-40.000000,16.000000,18.750000
6012007,-32.000000,16.000000,18.750000
6012008,-24.000000,16.000000,18.750000
6012009,-16.000000,16.000000,18.750000
6012010,-8.000000,16.000000,18.750000
6012011,0.000000,16.000000,18.750000
6012012,8.000000,16.000000,18.750000
6012013,16.000000,16.000000,18.750000
6012014,24.000000,16.000000,18.750000
6012015,32.000000,16.000000,18.750000
6012016,40.000000,16.000000,18.750000
6012017,48.000000,16.000000,18.750000
6012018,56.000000,16.000000,18.750000
6012019,64.000000,16.000000,18.750000
6012020,72.000000,16.000000,18.750000
6012021,80.000000,16.000000,18.750000
6013001,-80.000000,24.000000,18.750000
6013002,-72.000000,24.000000,18.750000
6013003,-64.000000,24.000000,18.750000
6013004,-56.000000,24.000000,18.750000
6013005,-48.000000,24.000000,18.750000
6013006,-40.000000,24.000000,18.750000
6013007,-32.000000,24.000000,18.750000
6013008,-24.000000,24.000000,18.750000
6013009,-16.000000,24.000000,18.750000
6013010,-8.000000,24.000000,18.750000
6013011,0.000000,24.000000,18.750000
6013012,8.000000,24.000000,18.750000
6013013,16.000000,24.000000,18.750000
6013014,24.000000,24.000000,18.750000
6013015,32.000000,24.000000,18.750000
6013016,40.000000,24.000000,18.750000
6013017,48.000000,24.000000,18.750000
6013018,56.000000,24.000000,18.750000
6013019,64.000000,24.000000,18.750000
6013020,72.000000,24.000000,18.750000
6013021,80.000000,24.000000,18.750000
6014001,-80.000000,32.000000,18.750000
6014002,-72.000000,32.000000,18.750000
6014003,-64.000000,32.000000,18.750000
6014004,-56.000000,32.000000,18.750000
6014005,-48.000000,32.000000,18.750000
6014006,-40.000000,32.000000,18.750000
6014007,-32.000000,32.000000,18.750000
6014008,-24.000000,32.000000,18.750000
6014009,-16.000000,32.000000,18.750000
6014010,-8.000000,32.000000,18.750000
6014011,0.000000,32.000000,18.750000
6014012,8.000000,32.000000,18.750000
6014013,16.000000,32.000000,18.750000
6014014,24.000000,32.000000,18.750000
6014015,32.000000,32.000000,18.750000
6014016,40.000000,32.000000,18.750000
6014017,48.000000,32.000000,18.750000
6014018,56.000000,32.000000,18.750000
6014019,64.000000,32.000000,18.750000
6014020,72.000000,32.000000,18.750000
6014021,80.000000,32.000000,18.750000
6015001,-80.000000,40.000000,18.750000
6015002,-72.000000,40.000000,18.750000
6015003,-64.000000,40.000000,18.750000
6015004,-56.000000,40.000000,18.750000
6015005,-48.000000,40.000000,18.750000
6015006,-40.000000,40.000000,18.750000
6015007,-32.000000,40.000000,18.750000
6015008,-24.000000,40.000000,18.750000
6015009,-16.000000,40.000000,18.750000
6015010,-8.000000,40.000000,18.750000
6015011,0.000000,40.000000,18.750000
6015012,8.000000,40.000000,18.750000
6015013,16.000000,40.000000,18.750000
6015014,24.000000,40.000000,18.750000
6015015,32.000000,40.000000,18.750000
6015016,40.000000,40.000000,18.750000
6015017,48.000000,40.000000,18.750000
6015018,56.000000,40.000000,18.750000
6015019,64.000000,40.000000,18.750000
6015020,72.000000,40.000000,18.750000
6015021,80.000000,40.000000,18.750000
6016001,-80.000000,48.000000,18.750000
6016002,-72.000000,48.000000,18.750000
6016003,-64.000000,48.000000,18.750000
6016004,-56.000000,48.000000,18.750000
6016005,-48.000000,48.000000,18.750000
6016006,-40.000000,48.000000,18.750000
6016007,-32.000000,48.000000,18.750000
6016008,-24.000000,48.000000,18.750000
6016009,-16.000000,48.000000,18.750000
6016010,-8.000000,48.000000,18.750000
6016011,0.000000,48.000000,18.750000
6016012,8.000000,48.000000,18.750000
6016013,16.000000,48.000000,18.750000
6016014,24.000000,48.000000,18.750000
6016015,32.000000,48.000000,18.750000
6016016,40.000000,48.000000,18.750000
6016017,48.000000,48.000000,18.750000
6016018,56.000000,48.000000,18.750000
6016019,64.000000,48.000000,18.750000
6016020,72.000000,48.000000,18.750000
6016021,80.000000,48.000000,18.750000
6017001,-80.000000,56.000000,18.750000
6017002,-72.000000,56.000000,18.750000
6017003,-64.000000,56.000000,18.750000
6017004,-56.000000,56.000000,18.750000
6017005,-48.000000,56.000000,18.750000
6017006,-40.000000,56.000000,18.750000
6017007,-32.000000,56.000000,18.750000
6017008,-24.000000,56.000000,18.750000
6017009,-16.000000,56.000000,18.750000
6017010,-8.000000,56.000000,18.750000
6017011,0.000000,56.000000,18.750000
6017012,8.000000,56.000000,18.750000
6017013,16.000000,56.000000,18.750000
6017014,24.000000,56.000000,18.750000
6017015,32.000000,56.000000,18.750000
6017016,40.000000,56.000000,18.750000
6017017,48.000000,56.000000,18.750000
6017018,56.000000,56.000000,18.750000
6017019,64.000000,56.000000,18.750000
6017020,72.000000,56.000000,18.750000
6017021,80.000000,56.000000,18.750000
6018001,-80.000000,64.000000,18.750000
6018002,-72.000000,64.000000,18.750000
6018003,-64.000000,64.000000,18.750000
6018004,-56.000000,64.000000,18.750000
6018005,-48.000000,64.000000,18.750000
6018006,-40.000000,64.000000,18.750000
6018007,-32.000000,64.000000,18.750000
6018008,-24.000000,64.000000,18.750000
6018009,-16.000000,64.000000,18.750000
6018010,-8.000000,64.000000,18.750000
6018011,0.000000,64.000000,18.750000
6018012,8.000000,64.000000,18.750000
6018013,16.000000,64.000000,18.750000
6018014,24.000000,64.000000,18.750000
6018015,32.000000,64.000000,18.750000
6018016,40.000000,64.000000,18.750000
6018017,48.000000,64.000000,18.750000
6018018,56.000000,64.000000,18.750000
6018019,64.000000,64.000000,18.750000
6018020,72.000000,64.000000,18.750000
6018021,80.000000,64.000000,18.750000
6019001,-80.000000,72.000000,18.750000
6019002,-72.000000,72.000000,18.750000
6019003,-64.000000,72.000000,18.750000
6019004,-56.000000,72.000000,18.750000
6019005,-48.000000,72.000000,18.750000
6019006,-40.000000,72.000000,18.750000
6019007,-32.000000,72.000000,18.750000
6019008,-24.000000,72.000000,18.750000
6019009,-16.000000,72.000000,18.750000
6019010,-8.000000,72.000000,18.750000
6019011,0.000000,72.000000,18.750000
6019012,8.000000,72.000000,18.750000
6019013,16.000000,72.000000,18.750000
6019014,24.000000,72.000000,18.750000
6019015,32.000000,72.000000,18.750000
6019016,40.000000,72.000000,18.750000
6019017,48.000000,72.000000,18.750000
6019018,56.000000,72.000000,18.750000
6019019,64.000000,72.000000,18.750000
6019020,72.000000,72.000000,18.750000
6019021,80.000000,72.000000,18.750000
6020001,-80.000000,80.000000,18.750000
6020002,-72.000000,80.000000,18.750000
6020003,-64.000000,80.000000,18.750000
6020004,-56.000000,80.000000,18.750000
6020005,-48.000000,80.000000,18.750000
6020006,-40.000000,80.000000,18.750000
6020007,-32.000000,80.000000,18.750000
6020008,-24.000000,80.000000,18.750000
6020009,-16.000000,80.000000,18.750000
6020010,-8.000000,80.000000,18.750000
6020011,0.000000,80.000000,18.750000
6020012,8.000000,80.000000,18.750000
6020013,16.000000,80.000000,18.750000
6020014,24.000000,80.000000,18.750000
6020015,32.000000,80.000000,18.750000
6020016,40.000000,80.000000,18.750000
6020017,48.000000,80.000000,18.750000
6020018,56.000000,80.000000,18.750000
6020019,64.000000,80.000000,18.750000
6020020,72.000000,80.000000,18.750000
6020021,80.000000,80.000000,18.750000
7000001,-80.000000,-80.000000,22.750000
7000002,-72.000000,-80.000000,22.750000
7000003,-64.000000,-80.000000,22.750000
7000004,-56.000000,-80.000000,22.750000
7000005,-48.000000,-80.000000,22.750000
7000006,-40.000000,-80.000000,22.750000
7000007,-32.000000,-80.000000,22.750000
7000008,-24.000000,-80.000000,22.750000
7000009,-16.000000,-80.000000,22.750000
7000010,-8.000000,-80.000000,22.750000
7000011,0.000000,-80.000000,22.750000
7000012,8.000000,-80.000000,22.750000
7000013,16.000000,-80.000000,22.750000
7000014,24.000000,-80.000000,22.750000
7000015,32.000000,-80.000000,22.750000
7000016,40.000000,-80.000000,22.750000
7000017,48.000000,-80.000000,22.750000
7000018,56.000000,-80.000000,22.750000
7000019,64.000000,-80.000000,22.750000
7000020,72.000000,-80.000000,22.750000
7000021,80.000000,-80.000000,22.750000
7001001,-80.000000,-72.000000,22.750000
7001002,-72.000000,-72.000000,22.750000
7001003,-64.000000,-72.000000,22.750000
7001004,-56.000000,-72.000000,22.750000
7001005,-48.000000,-72.000000,22.750000
7001006,-40.000000,-72.000000,22.750000
7001007,-32.000000,-72.000000,22.750000
7001008,-24.000000,-72.000000,22.750000
7001009,-16.000000,-72.000000,22.750000
7001010,-8.000000,-72.000000,22.750000
7001011,0.000000,-72.000000,22.750000
7001012,8.000000,-72.000000,22.750000
7001013,16.000000,-72.000000,22.750000
7001014,24.000000,-72.000000,22.750000
7001015,32.000000,-72.000000,22.750000
7001016,40.000000,-72.000000,22.750000
7001017,48.000000,-72.000000,22.750000
7001018,56.000000,-72.000000,22.750000
7001019,64.000000,-72.000000,22.750000
7001020,72.000000,-72.000000,22.750000
7001021,80.000000,-72.000000,22.750000
7002001,-80.000000,-64.000000,22.750000
7002002,-72.000000,-64.000000,22.750000
7002003,-64.000000,-64.000000,22.750000
7002004,-56.000000,-64.000000,22.750000
7002005,-48.000000,-64.000000,22.750000
7002006,-40.000000,-64.000000,22.750000
7002007,-32.000000,-64.000000,22.750000
7002008,-24.000000,-64.000000,22.750000
7002009,-16.000000,-64.000000,22.750000
7002010,-8.000000,-64.000000,22.750000
7002011,0.000000,-64.000000,22.750000
7002012,8.000000,-64.000000,22.750000
7002013,16.000000,-64.000000,22.750000
7002014,24.000000,-64.000000,22.750000
7002015,32.000000,-64.000000,22.750000
7002016,40.000000,-64.000000,22.750000
7002017,48.000000,-64.000000,22.750000
7002018,56.000000,-64.000000,22.750000
7002019,64.000000,-64.000000,22.750000
7002020,72.000000,-64.000000,22.750000
7002021,80.000000,-64.000000,22.750000
7003001,-80.000000,-56.000000,22.750000
7003002,-72.000000,-56.000000,22.750000
7003003,-64.000000,-56.000000,22.750000
7003004,-56.000000,-56.000000,22.750000
7003005,-48.000000,-56.000000,22.750000
7003006,-40.000000,-56.000000,22.750000
7003007,-32.000000,-56.000000,22.750000
7003008,-24.000000,-56.000000,22.750000
7003009,-16.000000,-56.000000,22.750000
7003010,-8.000000,-56.000000,22.750000
7003011,0.000000,-56.000000,22.750000
7003012,8.000000,-56.000000,22.750000
7003013,16.000000,-56.000000,22.750000
7003014,24.000000,-56.000000,22.750000
7003015,32.000000,-56.000000,22.750000
7003016,40.000000,-56.000000,22.750000
7003017,48.000000,-56.000000,22.750000
7003018,56.000000,-56.000000,22.750000
7003019,64.000000,-56.000000,22.750000
7003020,72.000000,-56.000000,22.750000
7003021,80.000000,-56.000000,22.750000
7004001,-80.000000,-48.000000,22.750000
7004002,-72.000000,-48.000000,22.750000
7004003,-64.000000,-48.000000,22.750000
7004004,-56.000000,-48.000000,22.750000
7004005,-48.000000,-48.000000,22.750000
7004006,-40.000000,-48.000000,22.750000
7004007,-32.000000,-48.000000,22.750000
7004008,-24.000000,-48.000000,22.750000
7004009,-16.000000,-48.000000,22.750000
7004010,-8.000000,-48.000000,22.750000
7004011,0.000000,-48.000000,22.750000
7004012,8.000000,-48.000000,22.750000
7004013,16.000000,-48.000000,22.750000
7004014,24.000000,-48.000000,22.750000
7004015,32.000000,-48.000000,22.750000
7004016,40.000000,-48.000000,22.750000
7004017,48.000000,-48.000000,22.750000
7004018,56.000000,-48.000000,22.750000
7004019,64.000000,-48.000000,22.750000
7004020,72.000000,-48.000000,22.750000
7004021,80.000000,-48.000000,22.750000
7005001,-80.000000,-40.000000,22.750000
7005002,-72.000000,-40.000000,22.750000
7005003,-64.000000,-40.000000,22.750000
7005004,-56.000000,-40.000000,22.750000
7005005,-48.000000,-40.000000,22.750000
7005006,-40.000000,-40.000000,22.750000
7005007,-32.000000,-40.000000,22.750000
7005008,-24.000000,-40.000000,22.750000
7005009,-16.000000,-40.000000,22.750000
7005010,-8.000000,-40.000000,22.750000
7005011,0.000000,-40.000000,22.750000
7005012,8.000000,-40.000000,22.750000
7005013,16.000000,-40.000000,22.750000
7005014,24.000000,-40.000000,22.750000
7005015,32.000000,-40.000000,22.750000
7005016,40.000000,-40.000000,22.750000
7005017,48.000000,-40.000000,22.750000
7005018,56.000000,-40.000000,22.750000
7005019,64.000000,-40.000000,22.750000
7005020,72.000000,-40.000000,22.750000
7005021,80.000000,-40.000000,22.750000
7006001,-80.000000,-32.000000,22.750000
7006002,-72.000000,-32.000000,22.750000
7006003,-64.000000,-32.000000,22.750000
7006004,-56.000000,-32.000000,22.750000
7006005,-48.000000,-32.000000,22.750000
7006006,-40.000000,-32.000000,22.750000
7006007,-32.000000,-32.000000,22.750000
7006008,-24.000000,-32.000000,22.750000
7006009,-16.000000,-32.000000,22.750000
7006010,-8.000000,-32.000000,22.750000
7006011,0.000000,-32.000000,22.750000
7006012,8.000000,-32.000000,22.750000
7006013,16.000000,-32.000000,22.750000
7006014,24.000000,-32.000000,22.750000
7006015,32.000000,-32.000000,22.750000
7006016,40.000000,-32.000000,22.750000
7006017,48.000000,-32.000000,22.750000
7006018,56.000000,-32.000000,22.750000
7006019,64.000000,-32.000000,22.750000
7006020,72.000000,-32.000000,22.750000
7006021,80.000000,-32.000000,22.750000
7007001,-80.000000,-24.000000,22.750000
7007002,-72.000000,-24.000000,22.750000
7007003,-64.000000,-24.000000,22.750000
7007004,-56.000000,-24.000000,22.750000
7007005,-48.000000,-24.000000,22.750000
7007006,-40.000000,-24.000000,22.750000
7007007,-32.000000,-24.000000,22.750000
7007008,-24.000000,-24.000000,22.750000
7007009,-16.000000,-24.000000,22.750000
7007010,-8.000000,-24.000000,22.750000
7007011,0.000000,-24.000000,22.750000
7007012,8.000000,-24.000000,22.750000
7007013,16.000000,-24.000000,22.750000
7007014,24.000000,-24.000000,22.750000
7007015,32.000000,-24.000000,22.750000
7007016,40.000000,-24.000000,22.750000
7007017,48.000000,-24.000000,22.750000
7007018,56.000000,-24.000000,22.750000
7007019,64.000000,-24.000000,22.750000
7007020,72.000000,-24.000000,22.750000
7007021,80.000000,-24.000000,22.750000
7008001,-80.000000,-16.000000,22.750000
7008002,-72.000000,-16.000000,22.750000
7008003,-64.000000,-16.000000,22.750000
7008004,-56.000000,-16.000000,22.750000
7008005,-48.000000,-16.000000,22.750000
7008006,-40.000000,-16.000000,22.750000
7008007,-32.000000,-16.000000,22.750000
7008008,-24.000000,-16.000000,22.750000
7008009,-16.000000,-16.000000,22.750000
7008010,-8.000000,-16.000000,22.750000
7008011,0.000000,-16.000000,22.750000
7008012,8.000000,-16.000000,22.750000
7008013,16.000000,-16.000000,22.750000
7008014,24.000000,-16.000000,22.750000
7008015,32.000000,-16.000000,22.750000
7008016,40.000000,-16.000000,22.750000
7008017,48.000000,-16.000000,22.750000
7008018,56.000000,-16.000000,22.750000
7008019,64.000000,-16.000000,22.750000
7008020,72.000000,-16.000000,22.750000
7008021,80.000000,-16.000000,22.750000
7009001,-80.000000,-8.000000,22.750000
7009002,-72.000000,-8.000000,22.750000
7009003,-64.000000,-8.000000,22.750000
7009004,-56.000000,-8.000000,22.750000
7009005,-48.000000,-8.000000,22.750000
7009006,-40.000000,-8.000000,22.750000
7009007,-32.000000,-8.000000,22.750000
7009008,-24.000000,-8.000000,22.750000
7009009,-16.000000,-8.000000,22.750000
7009010,-8.000000,-8.000000,22.750000
7009011,0.000000,-8.000000,22.750000
7009012,8.000000,-8.000000,22.750000
7009013,16.000000,-8.000000,22.750000
7009014,24.000000,-8.000000,22.750000
7009015,32.000000,-8.000000,22.750000
7009016,40.000000,-8.000000,22.750000
7009017,48.000000,-8.000000,22.750000
7009018,56.000000,-8.000000,22.750000
7009019,64.000000,-8.000000,22.750000
7009020,72.000000,-8.000000,22.750000
7009021,80.000000,-8.000000,22.750000
7010001,-80.000000,0.000000,22.750000
7010002,-72.000000,0.000000,22.750000
7010003,-64.000000,0.000000,22.750000
7010004,-56.000000,0.000000,22.750000
7010005,-48.000000,0.000000,22.750000
7010006,-40.000000,0.000000,22.750000
7010007,-32.000000,0.000000,22.750000
7010008,-24.000000,0.000000,22.750000
7010009,-16.000000,0.000000,22.750000
7010010,-8.000000,0.000000,22.750000
7010011,0.000000,0.000000,22.750000
7010012,8.000000,0.000000,22.750000
7010013,16.000000,0.000000,22.750000
7010014,24.000000,0.000000,22.750000
7010015,32.000000,0.000000,22.750000
7010016,40.000000,0.000000,22.750000
7010017,48.000000,0.000000,22.750000
7010018,56.000000,0.000000,22.750000
7010019,64.000000,0.000000,22.750000
7010020,72.000000,0.000000,22.750000
7010021,80.000000,0.000000,22.750000
7011001,-80.000000,8.000000,22.750000
7011002,-72.000000,8.000000,22.750000
7011003,-64.000000,8.000000,22.750000
7011004,-56.000000,8.000000,22.750000
7011005,-48.000000,8.000000,22.750000
7011006,-40.000000,8.000000,22.750000
7011007,-32.000000,8.000000,22.750000
7011008,-24.000000,8.000000,22.750000
7011009,-16.000000,8.000000,22.750000
7011010,-8.000000,8.000000,22.750000
7011011,0.000000,8.000000,22.750000
7011012,8.000000,8.000000,22.750000
7011013,16.000000,8.000000,22.750000
7011014,24.000000,8.000000,22.750000
7011015,32.000000,8.000000,22.750000
7011016,40.000000,8.000000,22.750000
7011017,48.000000,8.000000,22.750000
7011018,56.000000,8.000000,22.750000
7011019,64.000000,8.000000,22.750000
7011020,72.000000,8.000000,22.750000
7011021,80.000000,8.000000,22.750000
7012001,-80.000000,16.000000,22.750000
7012002,-72.000000,16.000000,22.750000
7012003,-64.000000,16.000000,22.750000
7012004,-56.000000,16.000000,22.750000
7012005,-48.000000,16.000000,22.750000
7012006,-40.000000,16.000000,22.750000
7012007,-32.000000,16.000000,22.750000
7012008,-24.000000,16.000000,22.750000
7012009,-16.000000,16.000000,22.750000
7012010,-8.000000,16.000000,22.750000
7012011,0.000000,16.000000,22.750000
7012012,8.000000,16.000000,22.750000
7012013,16.000000,16.000000,22.750000
7012014,24.000000,16.000000,22.750000
7012015,32.000000,16.000000,22.750000
7012016,40.000000,16.000000,22.750000
7012017,48.000000,16.000000,22.750000
7012018,56.000000,16.000000,22.750000
7012019,64.000000,16.000000,22.750000
7012020,72.000000,16.000000,22.750000
7012021,80.000000,16.000000,22.750000
7013001,-80.000000,24.000000,22.750000
7013002,-72.000000,24.000000,22.750000
7013003,-64.000000,24.000000,22.750000
7013004,-56.000000,24.000000,22.750000
7013005,-48.000000,24.000000,22.750000
7013006,-40.000000,24.000000,22.750000
7013007,-32.000000,24.000000,22.750000
7013008,-24.000000,24.000000,22.750000
7013009,-16.000000,24.000000,22.750000
7013010,-8.000000,24.000000,22.750000
7013011,0.000000,24.000000,22.750000
7013012,8.000000,24.000000,22.750000
7013013,16.000000,24.000000,22.750000
7013014,24.000000,24.000000,22.750000
7013015,32.000000,24.000000,22.750000
7013016,40.000000,24.000000,22.750000
7013017,48.000000,24.000000,22.750000
7013018,56.000000,24.000000,22.750000
7013019,64.000000,24.000000,22.750000
7013020,72.000000,24.000000,22.750000
7013021,80.000000,24.000000,22.750000
7014001,-80.000000,32.000000,22.750000
7014002,-72.000000,32.000000,22.750000
7014003,-64.000000,32.000000,22.750000
7014004,-56.000000,32.000000,22.750000
7014005,-48.000000,32.000000,22.750000
7014006,-40.000000,32.000000,22.750000
7014007,-32.000000,32.000000,22.750000
7014008,-24.000000,32.000000,22.750000
7014009,-16.000000,32.000000,22.750000
7014010,-8.000000,32.000000,22.750000
7014011,0.000000,32.000000,22.750000
7014012,8.000000,32.000000,22.750000
7014013,16.000000,32.000000,22.750000
7014014,24.000000,32.000000,22.750000
7014015,32.000000,32.000000,22.750000
7014016,40.000000,32.000000,22.750000
7014017,48.000000,32.000000,22.750000
7014018,56.000000,32.000000,22.750000
7014019,64.000000,32.000000,22.750000
7014020,72.000000,32.000000,22.750000
7014021,80.000000,32.000000,22.750000
7015001,-80.000000,40.000000,22.750000
7015002,-72.000000,40.000000,22.750000
7015003,-64.000000,40.000000,22.750000
7015004,-56.000000,40.000000,22.750000
7015005,-48.000000,40.000000,22.750000
7015006,-40.000000,40.000000,22.750000
7015007,-32.000000,40.000000,22.750000
7015008,-24.000000,40.000000,22.750000
7015009,-16.000000,40.000000,22.750000
7015010,-8.000000,40.000000,22.750000
7015011,0.000000,40.000000,22.750000
7015012,8.000000,40.000000,22.750000
7015013,16.000000,40.000000,22.750000
7015014,24.000000,40.000000,22.750000
7015015,32.000000,40.000000,22.750000
7015016,40.000000,40.000000,22.750000
7015017,48.000000,40.000000,22.750000
7015018,56.000000,40.000000,22.750000
7015019,64.000000,40.000000,22.750000
7015020,72.000000,40.000000,22.750000
7015021,80.000000,40.000000,22.750000
7016001,-80.000000,48.000000,22.750000
7016002,-72.000000,48.000000,22.750000
7016003,-64.000000,48.000000,22.750000
7016004,-56.000000,48.000000,22.750000
7016005,-48.000000,48.000000,22.750000
7016006,-40.000000,48.000000,22.750000
7016007,-32.000000,48.000000,22.750000
7016008,-24.000000,48.000000,22.750000
7016009,-16.000000,48.000000,22.750000
7016010,-8.000000,48.000000,22.750000
7016011,0.000000,48.000000,22.750000
7016012,8.000000,48.000000,22.750000
7016013,16.000000,48.000000,22.750000
7016014,24.000000,48.000000,22.750000
7016015,32.000000,48.000000,22.750000
7016016,40.000000,48.000000,22.750000
7016017,48.000000,48.000000,22.750000
7016018,56.000000,48.000000,22.750000
7016019,64.000000,48.000000,22.750000
7016020,72.000000,48.000000,22.750000
7016021,80.000000,48.000000,22.750000
7017001,-80.000000,56.000000,22.750000
7017002,-72.000000,56.000000,22.750000
7017003,-64.000000,56.000000,22.750000
7017004,-56.000000,56.000000,22.750000
7017005,-48.000000,56.000000,22.750000
7017006,-40.000000,56.000000,22.750000
7017007,-32.000000,56.000000,22.750000
7017008,-24.000000,56.000000,22.750000
7017009,-16.000000,56.000000,22.750000
7017010,-8.000000,56.000000,22.750000
7017011,0.000000,56.000000,22.750000
7017012,8.000000,56.000000,22.750000
7017013,16.000000,56.000000,22.750000
7017014,24.000000,56.000000,22.750000
7017015,32.000000,56.000000,22.750000
7017016,40.000000,56.000000,22.750000
7017017,48.000000,56.000000,22.750000
7017018,56.000000,56.000000,22.750000
7017019,64.000000,56.000000,22.750000
7017020,72.000000,56.000000,22.750000
7017021,80.000000,56.000000,22.750000
7018001,-80.000000,64.000000,22.750000
7018002,-72.000000,64.000000,22.750000
7018003,-64.000000,64.000000,22.750000
7018004,-56.000000,64.000000,22.750000
7018005,-48.000000,64.000000,22.750000
7018006,-40.000000,64.000000,22.750000
7018007,-32.000000,64.000000,22.750000
7018008,-24.000000,64.000000,22.750000
7018009,-16.000000,64.000000,22.750000
7018010,-8.000000,64.000000,22.750000
7018011,0.000000,64.000000,22.750000
7018012,8.000000,64.000000,22.750000
7018013,16.000000,64.000000,22.750000
7018014,24.000000,64.000000,22.750000
7018015,32.000000,64.000000,22.750000
7018016,40.000000,64.000000,22.750000
7018017,48.000000,64.000000,22.750000
7018018,56.000000,64.000000,22.750000
7018019,64.000000,64.000000,22.750000
7018020,72.000000,64.000000,22.750000
7018021,80.000000,64.000000,22.750000
7019001,-80.000000,72.000000,22.750000
7019002,-72.000000,72.000000,22.750000
7019003,-64.000000,72.000000,22.750000
7019004,-56.000000,72.000000,22.750000
7019005,-48.000000,72.000000,22.750000
7019006,-40.000000,72.000000,22.750000
7019007,-32.000000,72.000000,22.750000
7019008,-24.000000,72.000000,22.750000
7019009,-16.000000,72.000000,22.750000
7019010,-8.000000,72.000000,22.750000
7019011,0.000000,72.000000,22.750000
7019012,8.000000,72.000000,22.750000
7019013,16.000000,72.000000,22.750000
7019014,24.000000,72.000000,22.750000
7019015,32.000000,72.000000,22.750000
7019016,40.000000,72.000000,22.750000
7019017,48.000000,72.000000,22.750000
7019018,56.000000,72.000000,22.750000
7019019,64.000000,72.000000,22.750000
7019020,72.000000,72.000000,22.750000
7019021,80.000000,72.000000,22.750000
7020001,-80.000000,80.000000,22.750000
7020002,-72.000000,80.000000,22.750000
7020003,-64.000000,80.000000,22.750000
7020004,-56.000000,80.000000,22.750000
7020005,-48.000000,80.000000,22.750000
7020006,-40.000000,80.000000,22.750000
7020007,-32.000000,80.000000,22.750000
7020008,-24.000000,80.000000,22.750000
7020009,-16.000000,80.000000,22.750000
7020010,-8.000000,80.000000,22.750000
7020011,0.000000,80.000000,22.750000
7020012,8.000000,80.000000,22.750000
7020013,16.000000,80.000000,22.750000
7020014,24.000000,80.000000,22.750000
7020015,32.000000,80.000000,22.750000
7020016,40.000000,80.000000,22.750000
7020017,48.000000,80.000000,22.750000
7020018,56.000000,80.000000,22.750000
7020019,64.000000,80.000000,22.750000
7020020,72.000000,80.000000,22.750000
7020021,80.000000,80.000000,22.750000
8001009,-16.000000,-72.000000,22.750000
8001010,-8.000000,-72.000000,22.750000
8001011,0.000000,-72.000000,22.750000
8001012,8.000000,-72.000000,22.750000
8001013,16.000000,-72.000000,22.750000
8002007,-32.000000,-64.000000,22.750000
8002008,-24.000000,-64.000000,22.750000
8002009,-16.000000,-64.000000,22.750000
8002010,-8.000000,-64.000000,22.750000
8002011,0.000000,-64.000000,22.750000
8002012,8.000000,-64.000000,22.750000
8002013,16.000000,-64.000000,22.750000
8002014,24.000000,-64.000000,22.750000
8002015,32.000000,-64.000000,22.750000
8003005,-48.000000,-56.000000,22.750000
8003006,-40.000000,-56.000000,22.750000
8003007,-32.000000,-56.000000,22.750000
8003008,-24.000000,-56.000000,22.750000
8003009,-16.000000,-56.000000,22.750000
8003010,-8.000000,-56.000000,22.750000
8003011,0.000000,-56.000000,22.750000
8003012,8.000000,-56.000000,22.750000
8003013,16.000000,-56.000000,22.750000
8003014,24.000000,-56.000000,22.750000
8003015,32.000000,-56.000000,22.750000
8003016,40.000000,-56.000000,22.750000
8003017,48.000000,-56.000000,22.750000
8004004,-56.000000,-48.000000,22.750000
8004005,-48.000000,-48.000000,22.750000
8004006,-40.000000,-48.000000,22.750000
8004007,-32.000000,-48.000000,22.750000
8004008,-24.000000,-48.000000,22.750000
8004009,-16.000000,-48.000000,22.750000
8004010,-8.000000,-48.000000,22.750000
8004011,0.000000,-48.000000,22.750000
8004012,8.000000,-48.000000,22.750000
8004013,16.000000,-48.000000,22.750000
8004014,24.000000,-48.000000,22.750000
8004015,32.000000,-48.000000,22.750000
8004016,40.000000,-48.000000,22.750000
8004017,48.000000,-48.000000,22.750000
8004018,56.000000,-48.000000,22.750000
8005004,-56.000000,-40.000000,22.750000
8005005,-48.000000,-40.000000,22.750000
8005006,-40.000000,-40.000000,22.750000
8005007,-32.000000,-40.000000,22.750000
8005008,-24.000000,-40.000000,22.750000
8005009,-16.000000,-40.000000,22.750000
8005010,-8.000000,-40.000000,22.750000
8005011,0.000000,-40.000000,22.750000
8005012,8.000000,-40.000000,22.750000
8005013,16.000000,-40.000000,22.750000
8005014,24.000000,-40.000000,22.750000
8005015,32.000000,-40.000000,22.750000
8005016,40.000000,-40.000000,22.750000
8005017,48.000000,-40.000000,22.750000
8005018,56.000000,-40.000000,22.750000
8006003,-64.000000,-32.000000,22.750000
8006004,-56.000000,-32.000000,22.750000
8006005,-48.000000,-32.000000,22.750000
8006006,-40.000000,-32.000000,22.750000
8006007,-32.000000,-32.000000,22.750000
8006008,-24.000000,-32.000000,22.750000
8006009,-16.000000,-32.000000,22.750000
8006010,-8.000000,-32.000000,22.750000
8006011,0.000000,-32.000000,22.750000
8006012,8.000000,-32.000000,22.750000
8006013,16.000000,-32.000000,22.750000
8006014,24.000000,-32.000000,22.750000
8006015,32.000000,-32.000000,22.750000
8006016,40.000000,-32.000000,22.750000
8006017,48.000000,-32.000000,22.750000
8006018,56.000000,-32.000000,22.750000
8006019,64.000000,-32.000000,22.750000
8007003,-64.000000,-24.000000,22.750000
8007004,-56.000000,-24.000000,22.750000
8007005,-48.000000,-24.000000,22.750000
8007006,-40.000000,-24.000000,22.750000
8007007,-32.000000,-24.000000,22.750000
8007008,-24.000000,-24.000000,22.750000
8007009,-16.000000,-24.000000,22.750000
8007010,-8.000000,-24.000000,22.750000
8007011,0.000000,-24.000000,22.750000
8007012,8.000000,-24.000000,22.750000
8007013,16.000000,-24.000000,22.750000
8007014,24.000000,-24.000000,22.750000
8007015,32.000000,-24.000000,22.750000
8007016,40.000000,-24.000000,22.750000
8007017,48.000000,-24.000000,22.750000
8007018,56.000000,-24.000000,22.750000
8007019,64.000000,-24.000000,22.750000
8008002,-72.000000,-16.000000,22.750000
8008003,-64.000000,-16.000000,22.750000
8008004,-56.000000,-16.000000,22.750000
8008005,-48.000000,-16.000000,22.750000
8008006,-40.000000,-16.000000,22.750000
8008007,-32.000000,-16.000000,22.750000
8008008,-24.000000,-16.000000,22.750000
8008009,-16.000000,-16.000000,22.750000
8008013,16.000000,-16.000000,22.750000
8008014,24.000000,-16.000000,22.750000
8008015,32.000000,-16.000000,22.750000
8008016,40.000000,-16.000000,22.750000
8008017,48.000000,-16.000000,22.750000
8008018,56.000000,-16.000000,22.750000
8008019,64.000000,-16.000000,22.750000
8008020,72.000000,-16.000000,22.750000
8009002,-72.000000,-8.000000,22.750000
8009003,-64.000000,-8.000000,22.750000
8009004,-56.000000,-8.000000,22.750000
8009005,-48.000000,-8.000000,22.750000
8009006,-40.000000,-8.000000,22.750000
8009007,-32.000000,-8.000000,22.750000
8009008,-24.000000,-8.000000,22.750000
8009014,24.000000,-8.000000,22.750000
8009015,32.000000,-8.000000,22.750000
8009016,40.000000,-8.000000,22.750000
8009017,48.000000,-8.000000,22.750000
8009018,56.000000,-8.000000,22.750000
8009019,64.000000,-8.000000,22.750000
8009020,72.000000,-8.000000,22.750000
8010002,-72.000000,0.000000,22.750000
8010003,-64.000000,0.000000,22.750000
8010004,-56.000000,0.000000,22.750000
8010005,-48.000000,0.000000,22.750000
8010006,-40.000000,0.000000,22.750000
8010007,-32.000000,0.000000,22.750000
8010008,-24.000000,0.000000,22.750000
8010014,24.000000,0.000000,22.750000
8010015,32.000000,0.000000,22.750000
8010016,40.000000,0.000000,22.750000
8010017,48.000000,0.000000,22.750000
8010018,56.000000,0.000000,22.750000
8010019,64.000000,0.000000,22.750000
8010020,72.000000,0.000000,22.750000
8011002,-72.000000,8.000000,22.750000
8011003,-64.000000,8.000000,22.750000
8011004,-56.000000,8.000000,22.750000
8011005,-48.000000,8.000000,22.750000
8011006,-40.000000,8.000000,22.750000
8011007,-32.000000,8.000000,22.750000
8011008,-24.000000,8.000000,22.750000
8011014,24.000000,8.000000,22.750000
8011015,32.000000,8.000000,22.750000
8011016,40.000000,8.000000,22.750000
8011017,48.000000,8.000000,22.750000
8011018,56.000000,8.000000,22.750000
8011019,64.000000,8.000000,22.750000
8011020,72.000000,8.000000,22.750000
8012002,-72.000000,16.000000,22.750000
8012003,-64.000000,16.000000,22.750000
8012004,-56.000000,16.000000,22.750000
8012005,-48.000000,16.000000,22.750000
8012006,-40.000000,16.000000,22.750000
8012007,-32.000000,16.000000,22.750000
8012008,-24.000000,16.000000,22.750000
8012009,-16.000000,16.000000,22.750000
8012013,16.000000,16.000000,22.750000
8012014,24.000000,16.000000,22.750000
8012015,32.000000,16.000000,22.750000
8012016,40.000000,16.000000,22.750000
8012017,48.000000,16.000000,22.750000
8012018,56.000000,16.000000,22.750000
8012019,64.000000,16.000000,22.750000
8012020,72.000000,16.000000,22.750000
8013003,-64.000000,24.000000,22.750000
8013004,-56.000000,24.000000,22.750000
8013005,-48.000000,24.000000,22.750000
8013006,-40.000000,24.000000,22.750000
8013007,-32.000000,24.000000,22.750000
8013008,-24.000000,24.000000,22.750000
8013009,-16.000000,24.000000,22.750000
8013010,-8.000000,24.000000,22.750000
8013011,0.000000,24.000000,22.750000
8013012,8.000000,24.000000,22.750000
8013013,16.000000,24.000000,22.750000
8013014,24.000000,24.000000,22.750000
8013015,32.000000,24.000000,22.750000
8013016,40.000000,24.000000,22.750000
8013017,48.000000,24.000000,22.750000
8013018,56.000000,24.000000,22.750000
8013019,64.000000,24.000000,22.750000
8014003,-64.000000,32.000000,22.750000
8014004,-56.000000,32.000000,22.750000
8014005,-48.000000,32.000000,22.750000
8014006,-40.000000,32.000000,22.750000
8014007,-32.000000,32.000000,22.750000
8014008,-24.000000,32.000000,22.750000
8014009,-16.000000,32.000000,22.750000
8014010,-8.000000,32.000000,22.750000
8014011,0.000000,32.000000,22.750000
8014012,8.000000,32.000000,22.750000
8014013,16.000000,32.000000,22.750000
8014014,24.000000,32.000000,22.750000
8014015,32.000000,32.000000,22.750000
8014016,40.000000,32.000000,22.750000
8014017,48.000000,32.000000,22.750000
8014018,56.000000,32.000000,22.750000
8014019,64.000000,32.000000,22.750000
8015004,-56.000000,40.000000,22.750000
8015005,-48.000000,40.000000,22.750000
8015006,-40.000000,40.000000,22.750000
8015007,-32.000000,40.000000,22.750000
8015008,-24.000000,40.000000,22.750000
8015009,-16.000000,40.000000,22.750000
8015010,-8.000000,40.000000,22.750000
8015011,0.000000,40.000000,22.750000
8015012,8.000000,40.000000,22.750000
8015013,16.000000,40.000000,22.750000
8015014,24.000000,40.000000,22.750000
8015015,32.000000,40.000000,22.750000
8015016,40.000000,40.000000,22.750000
8015017,48.000000,40.000000,22.750000
8015018,56.000000,40.000000,22.750000
8016004,-56.000000,48.000000,22.750000
8016005,-48.000000,48.000000,22.750000
8016006,-40.000000,48.000000,22.750000
8016007,-32.000000,48.000000,22.750000
8016008,-24.000000,48.000000,22.750000
8016009,-16.000000,48.000000,22.750000
8016010,-8.000000,48.000000,22.750000
8016011,0.000000,48.000000,22.750000
8016012,8.000000,48.000000,22.750000
8016013,16.000000,48.000000,22.750000
8016014,24.000000,48.000000,22.750000
8016015,32.000000,48.000000,22.750000
8016016,40.000000,48.000000,22.750000
8016017,48.000000,48.000000,22.750000
8016018,56.000000,48.000000,22.750000
8017005,-48.000000,56.000000,22.750000
8017006,-40.000000,56.000000,22.750000
8017007,-32.000000,56.000000,22.750000
8017008,-24.000000,56.000000,22.750000
8017009,-16.000000,56.000000,22.750000
8017010,-8.000000,56.000000,22.750000
8017011,0.000000,56.000000,22.750000
8017012,8.000000,56.000000,22.750000
8017013,16.000000,56.000000,22.750000
8017014,24.000000,56.000000,22.750000
8017015,32.000000,56.000000,22.750000
8017016,40.000000,56.000000,22.750000
8017017,48.000000,56.000000,22.750000
8018007,-32.000000,64.000000,22.750000
8018008,-24.000000,64.000000,22.750000
8018009,-16.000000,64.000000,22.750000
8018010,-8.000000,64.000000,22.750000
8018011,0.000000,64.000000,22.750000
8018012,8.000000,64.000000,22.750000
8018013,16.000000,64.000000,22.750000
8018014,24.000000,64.000000,22.750000
8018015,32.000000,64.000000,22.750000
8019009,-16.000000,72.000000,22.750000
8019010,-8.000000,72.000000,22.750000
8019011,0.000000,72.000000,22.750000
8019012,8.000000,72.000000,22.750000
8019013,16.000000,72.000000,22.750000
9001009,-16.000000,-72.000000,26.750000
9001010,-8.000000,-72.000000,26.750000
9001011,0.000000,-72.000000,26.750000
9001012,8.000000,-72.000000,26.750000
9001013,16.000000,-72.000000,26.750000
9002007,-32.000000,-64.000000,26.750000
9002008,-24.000000,-64.000000,26.750000
9002009,-16.000000,-64.000000,26.750000
9002010,-8.000000,-64.000000,26.750000
9002011,0.000000,-64.000000,26.750000
9002012,8.000000,-64.000000,26.750000
9002013,16.000000,-64.000000,26.750000
9002014,24.000000,-64.000000,26.750000
9002015,32.000000,-64.000000,26.750000
9003005,-48.000000,-56.000000,26.750000
9003006,-40.000000,-56.000000,26.750000
9003007,-32.000000,-56.000000,26.750000
9003008,-24.000000,-56.000000,26.750000
9003009,-16.000000,-56.000000,26.750000
9003010,-8.000000,-56.000000,26.750000
9003011,0.000000,-56.000000,26.750000
9003012,8.000000,-56.000000,26.750000
9003013,16.000000,-56.000000,26.750000
9003014,24.000000,-56.000000,26.750000
9003015,32.000000,-56.000000,26.750000
9003016,40.000000,-56.000000,26.750000
9003017,48.000000,-56.000000,26.750000
9004004,-56.000000,-48.000000,26.750000
9004005,-48.000000,-48.000000,26.750000
9004006,-40.000000,-48.000000,26.750000
9004007,-32.000000,-48.000000,26.750000
9004008,-24.000000,-48.000000,26.750000
9004009,-16.000000,-48.000000,26.750000
9004010,-8.000000,-48.000000,26.750000
9004011,0.000000,-48.000000,26.750000
9004012,8.000000,-48.000000,26.750000
9004013,16.000000,-48.000000,26.750000
9004014,24.000000,-48.000000,26.750000
9004015,32.000000,-48.000000,26.750000
9004016,40.000000,-48.000000,26.750000
9004017,48.000000,-48.000000,26.750000
9004018,56.000000,-48.000000,26.750000
9005004,-56.000000,-40.000000,26.750000
9005005,-48.000000,-40.000000,26.750000
9005006,-40.000000,-40.000000,26.750000
9005007,-32.000000,-40.000000,26.750000
9005008,-24.000000,-40.000000,26.750000
9005009,-16.000000,-40.000000,26.750000
9005010,-8.000000,-40.000000,26.750000
9005011,0.000000,-40.000000,26.750000
9005012,8.000000,-40.000000,26.750000
9005013,16.000000,-40.000000,26.750000
9005014,24.000000,-40.000000,26.750000
9005015,32.000000,-40.000000,26.750000
9005016,40.000000,-40.000000,26.750000
9005017,48.000000,-40.000000,26.750000
9005018,56.000000,-40.000000,26.750000
9006003,-64.000000,-32.000000,26.750000
9006004,-56.000000,-32.000000,26.750000
9006005,-48.000000,-32.000000,26.750000
9006006,-40.000000,-32.000000,26.750000
9006007,-32.000000,-32.000000,26.750000
9006008,-24.000000,-32.000000,26.750000
9006009,-16.000000,-32.000000,26.750000
9006010,-8.000000,-32.000000,26.750000
9006011,0.000000,-32.000000,26.750000
9006012,8.000000,-32.000000,26.750000
9006013,16.000000,-32.000000,26.750000
9006014,24.000000,-32.000000,26.750000
9006015,32.000000,-32.000000,26.750000
9006016,40.000000,-32.000000,26.750000
9006017,48.000000,-32.000000,26.750000
9006018,56.000000,-32.000000,26.750000
9006019,64.000000,-32.000000,26.750000
9007003,-64.000000,-24.000000,26.750000
9007004,-56.000000,-24.000000,26.750000
9007005,-48.000000,-24.000000,26.750000
9007006,-40.000000,-24.000000,26.750000
9007007,-32.000000,-24.000000,26.750000
9007008,-24.000000,-24.000000,26.750000
9007009,-16.000000,-24.000000,26.750000
9007010,-8.000000,-24.000000,26.750000
9007011,0.000000,-24.000000,26.750000
9007012,8.000000,-24.000000,26.750000
9007013,16.000000,-24.000000,26.750000
9007014,24.000000,-24.000000,26.750000
9007015,32.000000,-24.000000,26.750000
9007016,40.000000,-24.000000,26.750000
9007017,48.000000,-24.000000,26.750000
9007018,56.000000,-24.000000,26.750000
9007019,64.000000,-24.000000,26.750000
9008002,-72.000000,-16.000000,26.750000
9008003,-64.000000,-16.000000,26.750000
9008004,-56.000000,-16.000000,26.750000
9008005,-48.000000,-16.000000,26.750000
9008006,-40.000000,-16.000000,26.750000
9008007,-32.000000,-16.000000,26.750000
9008008,-24.000000,-16.000000,26.750000
9008009,-16.000000,-16.000000,26.750000
9008013,16.000000,-16.000000,26.750000
9008014,24.000000,-16.000000,26.750000
9008015,32.000000,-16.000000,26.750000
9008016,40.000000,-16.000000,26.750000
9008017,48.000000,-16.000000,26.750000
9008018,56.000000,-16.000000,26.750000
9008019,64.000000,-16.000000,26.750000
9008020,72.000000,-16.000000,26.750000
9009002,-72.000000,-8.000000,26.750000
9009003,-64.000000,-8.000000,26.750000
9009004,-56.000000,-8.000000,26.750000
9009005,-48.000000,-8.000000,26.750000
9009006,-40.000000,-8.000000,26.750000
9009007,-32.000000,-8.000000,26.750000
9009008,-24.000000,-8.000000,26.750000
9009014,24.000000,-8.000000,26.750000
9009015,32.000000,-8.000000,26.750000
9009016,40.000000,-8.000000,26.750000
9009017,48.000000,-8.000000,26.750000
9009018,56.000000,-8.000000,26.750000
9009019,64.000000,-8.000000,26.750000
9009020,72.000000,-8.000000,26.750000
9010002,-72.000000,0.000000,26.750000
9010003,-64.000000,0.000000,26.750000
9010004,-56.000000,0.000000,26.750000
9010005,-48.000000,0.000000,26.750000
9010006,-40.000000,0.000000,26.750000
9010007,-32.000000,0.000000,26.750000
9010008,-24.000000,0.000000,26.750000
9010014,24.000000,0.000000,26.750000
9010015,32.000000,0.000000,26.750000
9010016,40.000000,0.000000,26.750000
9010017,48.000000,0.000000,26.750000
9010018,56.000000,0.000000,26.750000
9010019,64.000000,0.000000,26.750000
9010020,72.000000,0.000000,26.750000
9011002,-72.000000,8.000000,26.750000
9011003,-64.000000,8.000000,26.750000
9011004,-56.000000,8.000000,26.750000
9011005,-48.000000,8.000000,26.750000
9011006,-40.000000,8.000000,26.750000
9011007,-32.000000,8.000000,26.750000
9011008,-24.000000,8.000000,26.750000
9011014,24.000000,8.000000,26.750000
9011015,32.000000,8.000000,26.750000
9011016,40.000000,8.000000,26.750000
9011017,48.000000,8.000000,26.750000
9011018,56.000000,8.000000,26.750000
9011019,64.000000,8.000000,26.750000
9011020,72.000000,8.000000,26.750000
9012002,-72.000000,16.000000,26.750000
9012003,-64.000000,16.000000,26.750000
9012004,-56.000000,16.000000,26.750000
9012005,-48.000000,16.000000,26.750000
9012006,-40.000000,16.000000,26.750000
9012007,-32.000000,16.000000,26.750000
9012008,-24.000000,16.000000,26.750000
9012009,-16.000000,16.000000,26.750000
9012013,16.000000,16.000000,26.750000
9012014,24.000000,16.000000,26.750000
9012015,32.000000,16.000000,26.750000
9012016,40.000000,16.000000,26.750000
9012017,48.000000,16.000000,26.750000
9012018,56.000000,16.000000,26.750000
9012019,64.000000,16.000000,26.750000
9012020,72.000000,16.000000,26.750000
9013003,-64.000000,24.000000,26.750000
9013004,-56.000000,24.000000,26.750000
9013005,-48.000000,24.000000,26.750000
9013006,-40.000000,24.000000,26.750000
9013007,-32.000000,24.000000,26.750000
9013008,-24.000000,24.000000,26.750000
9013009,-16.000000,24.000000,26.750000
9013010,-8.000000,24.000000,26.750000
9013011,0.000000,24.000000,26.750000
9013012,8.000000,24.000000,26.750000
9013013,16.000000,24.000000,26.750000
9013014,24.000000,24.000000,26.750000
9013015,32.000000,24.000000,26.750000
9013016,40.000000,24.000000,26.750000
9013017,48.000000,24.000000,26.750000
9013018,56.000000,24.000000,26.750000
9013019,64.000000,24.000000,26.750000
9014003,-64.000000,32.000000,26.750000
9014004,-56.000000,32.000000,26.750000
9014005,-48.000000,32.000000,26.750000
9014006,-40.000000,32.000000,26.750000
9014007,-32.000000,32.000000,26.750000
9014008,-24.000000,32.000000,26.750000
9014009,-16.000000,32.000000,26.750000
9014010,-8.000000,32.000000,26.750000
9014011,0.000000,32.000000,26.750000
9014012,8.000000,32.000000,26.750000
9014013,16.000000,32.000000,26.750000
9014014,24.000000,32.000000,26.750000
9014015,32.000000,32.000000,26.750000
9014016,40.000000,32.000000,26.750000
9014017,48.000000,32.000000,26.750000
9014018,56.000000,32.000000,26.750000
9014019,64.000000,32.000000,26.750000
9015004,-56.000000,40.000000,26.750000
9015005,-48.000000,40.000000,26.750000
9015006,-40.000000,40.000000,26.750000
9015007,-32.000000,40.000000,26.750000
9015008,-24.000000,40.000000,26.750000
9015009,-16.000000,40.000000,26.750000
9015010,-8.000000,40.000000,26.750000
9015011,0.000000,40.000000,26.750000
9015012,8.000000,40.000000,26.750000
9015013,16.000000,40.000000,26.750000
9015014,24.000000,40.000000,26.750000
9015015,32.000000,40.000000,26.750000
9015016,40.000000,40.000000,26.750000
9015017,48.000000,40.000000,26.750000
9015018,56.000000,40.000000,26.750000
9016004,-56.000000,48.000000,26.750000
9016005,-48.000000,48.000000,26.750000
9016006,-40.000000,48.000000,26.750000
9016007,-32.000000,48.000000,26.750000
9016008,-24.000000,48.000000,26.750000
9016009,-16.000000,48.000000,26.750000
9016010,-8.000000,48.000000,26.750000
9016011,0.000000,48.000000,26.750000
9016012,8.000000,48.000000,26.750000
9016013,16.000000,48.000000,26.750000
9016014,24.000000,48.000000,26.750000
9016015,32.000000,48.000000,26.750000
9016016,40.000000,48.000000,26.750000
9016017,48.000000,48.000000,26.750000
9016018,56.000000,48.000000,26.750000
9017005,-48.000000,56.000000,26.750000
9017006,-40.000000,56.000000,26.750000
9017007,-32.000000,56.000000,26.750000
9017008,-24.000000,56.000000,26.750000
9017009,-16.000000,56.000000,26.750000
9017010,-8.000000,56.000000,26.750000
9017011,0.000000,56.000000,26.750000
9017012,8.000000,56.000000,26.750000
9017013,16.000000,56.000000,26.750000
9017014,24.000000,56.000000,26.750000
9017015,32.000000,56.000000,26.750000
9017016,40.000000,56.000000,26.750000
9017017,48.000000,56.000000,26.750000
9018007,-32.000000,64.000000,26.750000
9018008,-24.000000,64.000000,26.750000
9018009,-16.000000,64.000000,26.750000
9018010,-8.000000,64.000000,26.750000
9018011,0.000000,64.000000,26.750000
9018012,8.000000,64.000000,26.750000
9018013,16.000000,64.000000,26.750000
9018014,24.000000,64.000000,26.750000
9018015,32.000000,64.000000,26.750000
9019009,-16.000000,72.000000,26.750000
9019010,-8.000000,72.000000,26.750000
9019011,0.000000,72.000000,26.750000
9019012,8.000000,72.000000,26.750000
9019013,16.000000,72.000000,26.750000
10001009,-16.000000,-72.000000,30.750000
10001010,-8.000000,-72.000000,30.750000
10001011,0.000000,-72.000000,30.750000
10001012,8.000000,-72.000000,30.750000
10001013,16.000000,-72.000000,30.750000
10002007,-32.000000,-64.000000,30.750000
10002008,-24.000000,-64.000000,30.750000
10002009,-16.000000,-64.000000,30.750000
10002010,-8.000000,-64.000000,30.750000
10002011,0.000000,-64.000000,30.750000
10002012,8.000000,-64.000000,30.750000
10002013,16.000000,-64.000000,30.750000
10002014,24.000000,-64.000000,30.750000
10002015,32.000000,-64.000000,30.750000
10003005,-48.000000,-56.000000,30.750000
10003006,-40.000000,-56.000000,30.750000
10003007,-32.000000,-56.000000,30.750000
10003008,-24.000000,-56.000000,30.750000
10003009,-16.000000,-56.000000,30.750000
10003010,-8.000000,-56.000000,30.750000
10003011,0.000000,-56.000000,30.750000
10003012,8.000000,-56.000000,30.750000
10003013,16.000000,-56.000000,30.750000
10003014,24.000000,-56.000000,30.750000
10003015,32.000000,-56.000000,30.750000
10003016,40.000000,-56.000000,30.750000
10003017,48.000000,-56.000000,30.750000
10004004,-56.000000,-48.000000,30.750000
10004005,-48.000000,-48.000000,30.750000
10004006,-40.000000,-48.000000,30.750000
10004007,-32.000000,-48.000000,30.750000
10004008,-24.000000,-48.000000,30.750000
10004009,-16.000000,-48.000000,30.750000
10004010,-8.000000,-48.000000,30.750000
10004011,0.000000,-48.000000,30.750000
10004012,8.000000,-48.000000,30.750000
10004013,16.000000,-48.000000,30.750000
10004014,24.000000,-48.000000,30.750000
10004015,32.000000,-48.000000,30.750000
10004016,40.000000,-48.000000,30.750000
10004017,48.000000,-48.000000,30.750000
10004018,56.000000,-48.000000,30.750000
10005004,-56.000000,-40.000000,30.750000
10005005,-48.000000,-40.000000,30.750000
10005006,-40.000000,-40.000000,30.750000
10005007,-32.000000,-40.000000,30.750000
10005008,-24.000000,-40.000000,30.750000
10005009,-16.000000,-40.000000,30.750000
10005010,-8.000000,-40.000000,30.750000
10005011,0.000000,-40.000000,30.750000
10005012,8.000000,-40.000000,30.750000
10005013,16.000000,-40.000000,30.750000
10005014,24.000000,-40.000000,30.750000
10005015,32.000000,-40.000000,30.750000
10005016,40.000000,-40.000000,30.750000
10005017,48.000000,-40.000000,30.750000
10005018,56.000000,-40.000000,30.750000
10006003,-64.000000,-32.000000,30.750000
10006004,-56.000000,-32.000000,30.750000
10006005,-48.000000,-32.000000,30.750000
10006006,-40.000000,-32.000000,30.750000
10006007,-32.000000,-32.000000,30.750000
10006008,-24.000000,-32.000000,30.750000
10006009,-16.000000,-32.000000,30.750000
10006010,-8.000000,-32.000000,30.750000
10006011,0.000000,-32.000000,30.750000
10006012,8.000000,-32.000000,30.750000
10006013,16.000000,-32.000000,30.750000
10006014,24.000000,-32.000000,30.750000
10006015,32.000000,-32.000000,30.750000
10006016,40.000000,-32.000000,30.750000
10006017,48.000000,-32.000000,30.750000
10006018,56.000000,-32.000000,30.750000
10006019,64.000000,-32.000000,30.750000
10007003,-64.000000,-24.000000,30.750000
10007004,-56.000000,-24.000000,30.750000
10007005,-48.000000,-24.000000,30.750000
10007006,-40.000000,-24.000000,30.750000
10007007,-32.000000,-24.000000,30.750000
10007008,-24.000000,-24.000000,30.750000
10007009,-16.000000,-24.000000,30.750000
10007010,-8.000000,-24.000000,30.750000
10007011,0.000000,-24.000000,30.750000
10007012,8.000000,-24.000000,30.750000
10007013,16.000000,-24.000000,30.750000
10007014,24.000000,-24.000000,30.750000
10007015,32.000000,-24.000000,30.750000
10007016,40.000000,-24.000000,30.750000
10007017,48.000000,-24.000000,30.750000
10007018,56.000000,-24.000000,30.750000
10007019,64.000000,-24.000000,30.750000
10008002,-72.000000,-16.000000,30.750000
10008003,-64.000000,-16.000000,30.750000
10008004,-56.000000,-16.000000,30.750000
10008005,-48.000000,-16.000000,30.750000
10008006,-40.000000,-16.000000,30.750000
10008007,-32.000000,-16.000000,30.750000
10008008,-24.000000,-16.000000,30.750000
10008009,-16.000000,-16.000000,30.750000
10008013,16.000000,-16.000000,30.750000
10008014,24.000000,-16.000000,30.750000
10008015,32.000000,-16.000000,30.750000
10008016,40.000000,-16.000000,30.750000
10008017,48.000000,-16.000000,30.750000
10008018,56.000000,-16.000000,30.750000
10008019,64.000000,-16.000000,30.750000
10008020,72.000000,-16.000000,30.750000
10009002,-72.000000,-8.000000,30.750000
10009003,-64.000000,-8.000000,30.750000
10009004,-56.000000,-8.000000,30.750000
10009005,-48.000000,-8.000000,30.750000
10009006,-40.000000,-8.000000,30.750000
10009007,-32.000000,-8.000000,30.750000
10009008,-24.000000,-8.000000,30.750000
10009014,24.000000,-8.000000,30.750000
10009015,32.000000,-8.000000,30.750000
10009016,40.000000,-8.000000,30.750000
10009017,48.000000,-8.000000,30.750000
10009018,56.000000,-8.000000,30.750000
10009019,64.000000,-8.000000,30.750000
10009020,72.000000,-8.000000,30.750000
10010002,-72.000000,0.000000,30.750000
10010003,-64.000000,0.000000,30.750000
10010004,-56.000000,0.000000,30.750000
10010005,-48.000000,0.000000,30.750000
10010006,-40.000000,0.000000,30.750000
10010007,-32.000000,0.000000,30.750000
10010008,-24.000000,0.000000,30.750000
10010014,24.000000,0.000000,30.750000
10010015,32.000000,0.000000,30.750000
10010016,40.000000,0.000000,30.750000
10010017,48.000000,0.000000,30.750000
10010018,56.000000,0.000000,30.750000
10010019,64.000000,0.000000,30.750000
10010020,72.000000,0.000000,30.750000
10011002,-72.000000,8.000000,30.750000
10011003,-64.000000,8.000000,30.750000
10011004,-56.000000,8.000000,30.750000
10011005,-48.000000,8.000000,30.750000
10011006,-40.000000,8.000000,30.750000
10011007,-32.000000,8.000000,30.750000
10011008,-24.000000,8.000000,30.750000
10011014,24.000000,8.000000,30.750000
10011015,32.000000,8.000000,30.750000
10011016,40.000000,8.000000,30.750000
10011017,48.000000,8.000000,30.750000
10011018,56.000000,8.000000,30.750000
10011019,64.000000,8.000000,30.750000
10011020,72.000000,8.000000,30.750000
10012002,-72.000000,16.000000,30.750000
10012003,-64.000000,16.000000,30.750000
10012004,-56.000000,16.000000,30.750000
10012005,-48.000000,16.000000,30.750000
10012006,-40.000000,16.000000,30.750000
10012007,-32.000000,16.000000,30.750000
10012008,-24.000000,16.000000,30.750000
10012009,-16.000000,16.000000,30.750000
10012013,16.000000,16.000000,30.750000
10012014,24.000000,16.000000,30.750000
10012015,32.000000,16.000000,30.750000
10012016,40.000000,16.000000,30.750000
10012017,48.000000,16.000000,30.750000
10012018,56.000000,16.000000,30.750000
10012019,64.000000,16.000000,30.750000
10012020,72.000000,16.000000,30.750000
10013003,-64.000000,24.000000,30.750000
10013004,-56.000000,24.000000,30.750000
10013005,-48.000000,24.000000,30.750000
10013006,-40.000000,24.000000,30.750000
10013007,-32.000000,24.000000,30.750000
10013008,-24.000000,24.000000,30.750000
10013009,-16.000000,24.000000,30.750000
10013010,-8.000000,24.000000,30.750000
10013011,0.000000,24.000000,30.750000
10013012,8.000000,24.000000,30.750000
10013013,16.000000,24.000000,30.750000
10013014,24.000000,24.000000,30.750000
10013015,32.000000,24.000000,30.750000
10013016,40.000000,24.000000,30.750000
10013017,48.000000,24.000000,30.750000
10013018,56.000000,24.000000,30.750000
10013019,64.000000,24.000000,30.750000
10014003,-64.000000,32.000000,30.750000
10014004,-56.000000,32.000000,30.750000
10014005,-48.000000,32.000000,30.750000
10014006,-40.000000,32.000000,30.750000
10014007,-32.000000,32.000000,30.750000
10014008,-24.000000,32.000000,30.750000
10014009,-16.000000,32.000000,30.750000
10014010,-8.000000,32.000000,30.750000
10014011,0.000000,32.000000,30.750000
10014012,8.000000,32.000000,30.750000
10014013,16.000000,32.000000,30.750000
10014014,24.000000,32.000000,30.750000
10014015,32.000000,32.000000,30.750000
10014016,40.000000,32.000000,30.750000
10014017,48.000000,32.000000,30.750000
10014018,56.000000,32.000000,30.750000
10014019,64.000000,32.000000,30.750000
10015004,-56.000000,40.000000,30.750000
10015005,-48.000000,40.000000,30.750000
10015006,-40.000000,40.000000,30.750000
10015007,-32.000000,40.000000,30.750000
10015008,-24.000000,40.000000,30.750000
10015009,-16.000000,40.000000,30.750000
10015010,-8.000000,40.000000,30.750000
10015011,0.000000,40.000000,30.750000
10015012,8.000000,40.000000,30.750000
10015013,16.000000,40.000000,30.750000
10015014,24.000000,40.000000,30.750000
10015015,32.000000,40.000000,30.750000
10015016,40.000000,40.000000,30.750000
10015017,48.000000,40.000000,30.750000
10015018,56.000000,40.000000,30.750000
10016004,-56.000000,48.000000,30.750000
10016005,-48.000000,48.000000,30.750000
10016006,-40.000000,48.000000,30.750000
10016007,-32.000000,48.000000,30.750000
10016008,-24.000000,48.000000,30.750000
10016009,-16.000000,48.000000,30.750000
10016010,-8.000000,48.000000,30.750000
10016011,0.000000,48.000000,30.750000
10016012,8.000000,48.000000,30.750000
10016013,16.000000,48.000000,30.750000
10016014,24.000000,48.000000,30.750000
10016015,32.000000,48.000000,30.750000
10016016,40.000000,48.000000,30.750000
10016017,48.000000,48.000000,30.750000
10016018,56.000000,48.000000,30.750000
10017005,-48.000000,56.000000,30.750000
10017006,-40.000000,56.000000,30.750000
10017007,-32.000000,56.000000,30.750000
10017008,-24.000000,56.000000,30.750000
10017009,-16.000000,56.000000,30.750000
10017010,-8.000000,56.000000,30.750000
10017011,0.000000,56.000000,30.750000
10017012,8.000000,56.000000,30.750000
10017013,16.000000,56.000000,30.750000
10017014,24.000000,56.000000,30.750000
10017015,32.000000,56.000000,30.750000
10017016,40.000000,56.000000,30.750000
10017017,48.000000,56.000000,30.750000
10018007,-32.000000,64.000000,30.750000
10018008,-24.000000,64.000000,30.750000
10018009,-16.000000,64.000000,30.750000
10018010,-8.000000,64.000000,30.750000
10018011,0.000000,64.000000,30.750000
10018012,8.000000,64.000000,30.750000
10018013,16.000000,64.000000,30.750000
10018014,24.000000,64.000000,30.750000
10018015,32.000000,64.000000,30.750000
10019009,-16.000000,72.000000,30.750000
10019010,-8.000000,72.000000,30.750000
10019011,0.000000,72.000000,30.750000
10019012,8.000000,72.000000,30.750000
10019013,16.000000,72.000000,30.750000
99000000,0.0,0.0,30.75
99000100,70.000000,70.000000,10.75
99000101,70.000000,-70.000000,10.75
99000102,-70.000000,70.000000,10.75
99000103,-70.000000,-70.000000,10.75
99000200,57.742471,23.917715,22.75
99000201,23.917715,57.742471,22.75
99000202,-23.917715,57.742471,22.75
99000203,-57.742471,23.917715,22.75
99000204,-57.742471,-23.917715,22.75
99000205,-23.917715,-57.742471,22.75
99000206,23.917715,-57.742471,22.75
99000207,57.742471,-23.917715,22.75
*ELEMENT,TYPE=C3D8I,ELSET=EALL
1,1000001,1000002,1001002,1001001,2000001,2000002,2001002,2001001
2,1000002,1000003,1001003,1001002,2000002,2000003,2001003,2001002
3,1000003,1000004,1001004,1001003,2000003,2000004,2001004,2001003
4,1000004,1000005,1001005,1001004,2000004,2000005,2001005,2001004
5,1000005,1000006,1001006,1001005,2000005,2000006,2001006,2001005
6,1000006,1000007,1001007,1001006,2000006,2000007,2001007,2001006
7,1000007,1000008,1001008,1001007,2000007,2000008,2001008,2001007
8,1000008,1000009,1001009,1001008,2000008,2000009,2001009,2001008
9,1000009,1000010,1001010,1001009,2000009,2000010,2001010,2001009
10,1000010,1000011,1001011,1001010,2000010,2000011,2001011,2001010
11,1000011,1000012,1001012,1001011,2000011,2000012,2001012,2001011
12,1000012,1000013,1001013,1001012,2000012,2000013,2001013,2001012
13,1000013,1000014,1001014,1001013,2000013,2000014,2001014,2001013
14,1000014,1000015,1001015,1001014,2000014,2000015,2001015,2001014
15,1000015,1000016,1001016,1001015,2000015,2000016,2001016,2001015
16,1000016,1000017,1001017,1001016,2000016,2000017,2001017,2001016
17,1000017,1000018,1001018,1001017,2000017,2000018,2001018,2001017
18,1000018,1000019,1001019,1001018,2000018,2000019,2001019,2001018
19,1000019,1000020,1001020,1001019,2000019,2000020,2001020,2001019
20,1000020,1000021,1001021,1001020,2000020,2000021,2001021,2001020
21,1001001,1001002,1002002,1002001,2001001,2001002,2002002,2002001
22,1001002,1001003,1002003,1002002,2001002,2001003,2002003,2002002
23,1001003,1001004,1002004,1002003,2001003,2001004,2002004,2002003
24,1001004,1001005,1002005,1002004,2001004,2001005,2002005,2002004
25,1001005,1001006,1002006,1002005,2001005,2001006,2002006,2002005
26,1001006,1001007,1002007,1002006,2001006,2001007,2002007,2002006
27,1001007,1001008,1002008,1002007,2001007,2001008,2002008,2002007
28,1001008,1001009,1002009,1002008,2001008,2001009,2002009,2002008
29,1001009,1001010,1002010,1002009,2001009,2001010,2002010,2002009
30,1001010,1001011,1002011,1002010,2001010,2001011,2002011,2002010
31,1001011,1001012,1002012,1002011,2001011,2001012,2002012,2002011
32,1001012,1001013,1002013,1002012,2001012,2001013,2002013,2002012
33,1001013,1001014,1002014,1002013,2001013,2001014,2002014,2002013
34,1001014,1001015,1002015,1002014,2001014,2001015,2002015,2002014
35,1001015,1001016,1002016,1002015,2001015,2001016,2002016,2002015
36,1001016,1001017,1002017,1002016,2001016,2001017,2002017,2002016
37,1001017,1001018,1002018,1002017,2001017,2001018,2002018,2002017
38,1001018,1001019,1002019,1002018,2001018,2001019,2002019,2002018
39,1001019,1001020,1002020,1002019,2001019,2001020,2002020,2002019
40,1001020,1001021,1002021,1002020,2001020,2001021,2002021,2002020
41,1002001,1002002,1003002,1003001,2002001,2002002,2003002,2003001
42,1002002,1002003,1003003,1003002,2002002,2002003,2003003,2003002
43,1002003,1002004,1003004,1003003,2002003,2002004,2003004,2003003
44,1002004,1002005,1003005,1003004,2002004,2002005,2003005,2003004
45,1002005,1002006,1003006,1003005,2002005,2002006,2003006,2003005
46,1002006,1002007,1003007,1003006,2002006,2002007,2003007,2003006
47,1002007,1002008,1003008,1003007,2002007,2002008,2003008,2003007
48,1002008,1002009,1003009,1003008,2002008,2002009,2003009,2003008
49,1002009,1002010,1003010,1003009,2002009,2002010,2003010,2003009
50,1002010,1002011,1003011,1003010,2002010,2002011,2003011,2003010
51,1002011,1002012,1003012,1003011,2002011,2002012,2003012,2003011
52,1002012,1002013,1003013,1003012,2002012,2002013,2003013,2003012
53,1002013,1002014,1003014,1003013,2002013,2002014,2003014,2003013
54,1002014,1002015,1003015,1003014,2002014,2002015,2003015,2003014
55,1002015,1002016,1003016,1003015,2002015,2002016,2003016,2003015
56,1002016,1002017,1003017,1003016,2002016,2002017,2003017,2003016
57,1002017,1002018,1003018,1003017,2002017,2002018,2003018,2003017
58,1002018,1002019,1003019,1003018,2002018,2002019,2003019,2003018
59,1002019,1002020,1003020,1003019,2002019,2002020,2003020,2003019
60,1002020,1002021,1003021,1003020,2002020,2002021,2003021,2003020
61,1003001,1003002,1004002,1004001,2003001,2003002,2004002,2004001
62,1003002,1003003,1004003,1004002,2003002,2003003,2004003,2004002
63,1003003,1003004,1004004,1004003,2003003,2003004,2004004,2004003
64,1003004,1003005,1004005,1004004,2003004,2003005,2004005,2004004
65,1003005,1003006,1004006,1004005,2003005,2003006,2004006,2004005
66,1003006,1003007,1004007,1004006,2003006,2003007,2004007,2004006
67,1003007,1003008,1004008,1004007,2003007,2003008,2004008,2004007
68,1003008,1003009,1004009,1004008,2003008,2003009,2004009,2004008
69,1003009,1003010,1004010,1004009,2003009,2003010,2004010,2004009
70,1003010,1003011,1004011,1004010,2003010,2003011,2004011,2004010
71,1003011,1003012,1004012,1004011,2003011,2003012,2004012,2004011
72,1003012,1003013,1004013,1004012,2003012,2003013,2004013,2004012
73,1003013,1003014,1004014,1004013,2003013,2003014,2004014,2004013
74,1003014,1003015,1004015,1004014,2003014,2003015,2004015,2004014
75,1003015,1003016,1004016,1004015,2003015,2003016,2004016,2004015
76,1003016,1003017,1004017,1004016,2003016,2003017,2004017,2004016
77,1003017,1003018,1004018,1004017,2003017,2003018,2004018,2004017
78,1003018,1003019,1004019,1004018,2003018,2003019,2004019,2004018
79,1003019,1003020,1004020,1004019,2003019,2003020,2004020,2004019
80,1003020,1003021,1004021,1004020,2003020,2003021,2004021,2004020
81,1004001,1004002,1005002,1005001,2004001,2004002,2005002,2005001
82,1004002,1004003,1005003,1005002,2004002,2004003,2005003,2005002
83,1004003,1004004,1005004,1005003,2004003,2004004,2005004,2005003
84,1004004,1004005,1005005,1005004,2004004,2004005,2005005,2005004
85,1004005,1004006,1005006,1005005,2004005,2004006,2005006,2005005
86,1004006,1004007,1005007,1005006,2004006,2004007,2005007,2005006
87,1004007,1004008,1005008,1005007,2004007,2004008,2005008,2005007
88,1004008,1004009,1005009,1005008,2004008,2004009,2005009,2005008
89,1004009,1004010,1005010,1005009,2004009,2004010,2005010,2005009
90,1004010,1004011,1005011,1005010,2004010,2004011,2005011,2005010
91,1004011,1004012,1005012,1005011,2004011,2004012,2005012,2005011
92,1004012,1004013,1005013,1005012,2004012,2004013,2005013,2005012
93,1004013,1004014,1005014,1005013,2004013,2004014,2005014,2005013
94,1004014,1004015,1005015,1005014,2004014,2004015,2005015,2005014
95,1004015,1004016,1005016,1005015,2004015,2004016,2005016,2005015
96,1004016,1004017,1005017,1005016,2004016,2004017,2005017,2005016
97,1004017,1004018,1005018,1005017,2004017,2004018,2005018,2005017
98,1004018,1004019,1005019,1005018,2004018,2004019,2005019,2005018
99,1004019,1004020,1005020,1005019,2004019,2004020,2005020,2005019
100,1004020,1004021,1005021,1005020,2004020,2004021,2005021,2005020
101,1005001,1005002,1006002,1006001,2005001,2005002,2006002,2006001
102,1005002,1005003,1006003,1006002,2005002,2005003,2006003,2006002
103,1005003,1005004,1006004,1006003,2005003,2005004,2006004,2006003
104,1005004,1005005,1006005,1006004,2005004,2005005,2006005,2006004
105,1005005,1005006,1006006,1006005,2005005,2005006,2006006,2006005
106,1005006,1005007,1006007,1006006,2005006,2005007,2006007,2006006
107,1005007,1005008,1006008,1006007,2005007,2005008,2006008,2006007
108,1005008,1005009,1006009,1006008,2005008,2005009,2006009,2006008
109,1005009,1005010,1006010,1006009,2005009,2005010,2006010,2006009
110,1005010,1005011,1006011,1006010,2005010,2005011,2006011,2006010
111,1005011,1005012,1006012,1006011,2005011,2005012,2006012,2006011
112,1005012,1005013,1006013,1006012,2005012,2005013,2006013,2006012
113,1005013,1005014,1006014,1006013,2005013,2005014,2006014,2006013
114,1005014,1005015,1006015,1006014,2005014,2005015,2006015,2006014
115,1005015,1005016,1006016,1006015,2005015,2005016,2006016,2006015
116,1005016,1005017,1006017,1006016,2005016,2005017,2006017,2006016
117,1005017,1005018,1006018,1006017,2005017,2005018,2006018,2006017
118,1005018,1005019,1006019,1006018,2005018,2005019,2006019,2006018
119,1005019,1005020,1006020,1006019,2005019,2005020,2006020,2006019
120,1005020,1005021,1006021,1006020,2005020,2005021,2006021,2006020
121,1006001,1006002,1007002,1007001,2006001,2006002,2007002,2007001
122,1006002,1006003,1007003,1007002,2006002,2006003,2007003,2007002
123,1006003,1006004,1007004,1007003,2006003,2006004,2007004,2007003
124,1006004,1006005,1007005,1007004,2006004,2006005,2007005,2007004
125,1006005,1006006,1007006,1007005,2006005,2006006,2007006,2007005
126,1006006,1006007,1007007,1007006,2006006,2006007,2007007,2007006
127,1006007,1006008,1007008,1007007,2006007,2006008,2007008,2007007
128,1006008,1006009,1007009,1007008,2006008,2006009,2007009,2007008
129,1006009,1006010,1007010,1007009,2006009,2006010,2007010,2007009
130,1006010,1006011,1007011,1007010,2006010,2006011,2007011,2007010
131,1006011,1006012,1007012,1007011,2006011,2006012,2007012,2007011
132,1006012,1006013,1007013,1007012,2006012,2006013,2007013,2007012
133,1006013,1006014,1007014,1007013,2006013,2006014,2007014,2007013
134,1006014,1006015,1007015,1007014,2006014,2006015,2007015,2007014
135,1006015,1006016,1007016,1007015,2006015,2006016,2007016,2007015
136,1006016,1006017,1007017,1007016,2006016,2006017,2007017,2007016
137,1006017,1006018,1007018,1007017,2006017,2006018,2007018,2007017
138,1006018,1006019,1007019,1007018,2006018,2006019,2007019,2007018
139,1006019,1006020,1007020,1007019,2006019,2006020,2007020,2007019
140,1006020,1006021,1007021,1007020,2006020,2006021,2007021,2007020
141,1007001,1007002,1008002,1008001,2007001,2007002,2008002,2008001
142,1007002,1007003,1008003,1008002,2007002,2007003,2008003,2008002
143,1007003,1007004,1008004,1008003,2007003,2007004,2008004,2008003
144,1007004,1007005,1008005,1008004,2007004,2007005,2008005,2008004
145,1007005,1007006,1008006,1008005,2007005,2007006,2008006,2008005
146,1007006,1007007,1008007,1008006,2007006,2007007,2008007,2008006
147,1007007,1007008,1008008,1008007,2007007,2007008,2008008,2008007
148,1007008,1007009,1008009,1008008,2007008,2007009,2008009,2008008
149,1007013,1007014,1008014,1008013,2007013,2007014,2008014,2008013
150,1007014,1007015,1008015,1008014,2007014,2007015,2008015,2008014
151,1007015,1007016,1008016,1008015,2007015,2007016,2008016,2008015
152,1007016,1007017,1008017,1008016,2007016,2007017,2008017,2008016
153,1007017,1007018,1008018,1008017,2007017,2007018,2008018,2008017
154,1007018,1007019,1008019,1008018,2007018,2007019,2008019,2008018
155,1007019,1007020,1008020,1008019,2007019,2007020,2008020,2008019
156,1007020,1007021,1008021,1008020,2007020,2007021,2008021,2008020
157,1008001,1008002,1009002,1009001,2008001,2008002,2009002,2009001
158,1008002,1008003,1009003,1009002,2008002,2008003,2009003,2009002
159,1008003,1008004,1009004,1009003,2008003,2008004,2009004,2009003
160,1008004,1008005,1009005,1009004,2008004,2008005,2009005,2009004
161,1008005,1008006,1009006,1009005,2008005,2008006,2009006,2009005
162,1008006,1008007,1009007,1009006,2008006,2008007,2009007,2009006
163,1008007,1008008,1009008,1009007,2008007,2008008,2009008,2009007
164,1008014,1008015,1009015,1009014,2008014,2008015,2009015,2009014
165,1008015,1008016,1009016,1009015,2008015,2008016,2009016,2009015
166,1008016,1008017,1009017,1009016,2008016,2008017,2009017,2009016
167,1008017,1008018,1009018,1009017,2008017,2008018,2009018,2009017
168,1008018,1008019,1009019,1009018,2008018,2008019,2009019,2009018
169,1008019,1008020,1009020,1009019,2008019,2008020,2009020,2009019
170,1008020,1008021,1009021,1009020,2008020,2008021,2009021,2009020
171,1009001,1009002,1010002,1010001,2009001,2009002,2010002,2010001
172,1009002,1009003,1010003,1010002,2009002,2009003,2010003,2010002
173,1009003,1009004,1010004,1010003,2009003,2009004,2010004,2010003
174,1009004,1009005,1010005,1010004,2009004,2009005,2010005,2010004
175,1009005,1009006,1010006,1010005,2009005,2009006,2010006,2010005
176,1009006,1009007,1010007,1010006,2009006,2009007,2010007,2010006
177,1009007,1009008,1010008,1010007,2009007,2009008,2010008,2010007
178,1009014,1009015,1010015,1010014,2009014,2009015,2010015,2010014
179,1009015,1009016,1010016,1010015,2009015,2009016,2010016,2010015
180,1009016,1009017,1010017,1010016,2009016,2009017,2010017,2010016
181,1009017,1009018,1010018,1010017,2009017,2009018,2010018,2010017
182,1009018,1009019,1010019,1010018,2009018,2009019,2010019,2010018
183,1009019,1009020,1010020,1010019,2009019,2009020,2010020,2010019
184,1009020,1009021,1010021,1010020,2009020,2009021,2010021,2010020
185,1010001,1010002,1011002,1011001,2010001,2010002,2011002,2011001
186,1010002,1010003,1011003,1011002,2010002,2010003,2011003,2011002
187,1010003,1010004,1011004,1011003,2010003,2010004,2011004,2011003
188,1010004,1010005,1011005,1011004,2010004,2010005,2011005,2011004
189,1010005,1010006,1011006,1011005,2010005,2010006,2011006,2011005
190,1010006,1010007,1011007,1011006,2010006,2010007,2011007,2011006
191,1010007,1010008,1011008,1011007,2010007,2010008,2011008,2011007
192,1010014,1010015,1011015,1011014,2010014,2010015,2011015,2011014
193,1010015,1010016,1011016,1011015,2010015,2010016,2011016,2011015
194,1010016,1010017,1011017,1011016,2010016,2010017,2011017,2011016
195,1010017,1010018,1011018,1011017,2010017,2010018,2011018,2011017
196,1010018,1010019,1011019,1011018,2010018,2010019,2011019,2011018
197,1010019,1010020,1011020,1011019,2010019,2010020,2011020,2011019
198,1010020,1010021,1011021,1011020,2010020,2010021,2011021,2011020
199,1011001,1011002,1012002,1012001,2011001,2011002,2012002,2012001
200,1011002,1011003,1012003,1012002,2011002,2011003,2012003,2012002
201,1011003,1011004,1012004,1012003,2011003,2011004,2012004,2012003
202,1011004,1011005,1012005,1012004,2011004,2011005,2012005,2012004
203,1011005,1011006,1012006,1012005,2011005,2011006,2012006,2012005
204,1011006,1011007,1012007,1012006,2011006,2011007,2012007,2012006
205,1011007,1011008,1012008,1012007,2011007,2011008,2012008,2012007
206,1011014,1011015,1012015,1012014,2011014,2011015,2012015,2012014
207,1011015,1011016,1012016,1012015,2011015,2011016,2012016,2012015
208,1011016,1011017,1012017,1012016,2011016,2011017,2012017,2012016
209,1011017,1011018,1012018,1012017,2011017,2011018,2012018,2012017
210,1011018,1011019,1012019,1012018,2011018,2011019,2012019,2012018
211,1011019,1011020,1012020,1012019,2011019,2011020,2012020,2012019
212,1011020,1011021,1012021,1012020,2011020,2011021,2012021,2012020
213,1012001,1012002,1013002,1013001,2012001,2012002,2013002,2013001
214,1012002,1012003,1013003,1013002,2012002,2012003,2013003,2013002
215,1012003,1012004,1013004,1013003,2012003,2012004,2013004,2013003
216,1012004,1012005,1013005,1013004,2012004,2012005,2013005,2013004
217,1012005,1012006,1013006,1013005,2012005,2012006,2013006,2013005
218,1012006,1012007,1013007,1013006,2012006,2012007,2013007,2013006
219,1012007,1012008,1013008,1013007,2012007,2012008,2013008,2013007
220,1012008,1012009,1013009,1013008,2012008,2012009,2013009,2013008
221,1012013,1012014,1013014,1013013,2012013,2012014,2013014,2013013
222,1012014,1012015,1013015,1013014,2012014,2012015,2013015,2013014
223,1012015,1012016,1013016,1013015,2012015,2012016,2013016,2013015
224,1012016,1012017,1013017,1013016,2012016,2012017,2013017,2013016
225,1012017,1012018,1013018,1013017,2012017,2012018,2013018,2013017
226,1012018,1012019,1013019,1013018,2012018,2012019,2013019,2013018
227,1012019,1012020,1013020,1013019,2012019,2012020,2013020,2013019
228,1012020,1012021,1013021,1013020,2012020,2012021,2013021,2013020
229,1013001,1013002,1014002,1014001,2013001,2013002,2014002,2014001
230,1013002,1013003,1014003,1014002,2013002,2013003,2014003,2014002
231,1013003,1013004,1014004,1014003,2013003,2013004,2014004,2014003
232,1013004,1013005,1014005,1014004,2013004,2013005,2014005,2014004
233,1013005,1013006,1014006,1014005,2013005,2013006,2014006,2014005
234,1013006,1013007,1014007,1014006,2013006,2013007,2014007,2014006
235,1013007,1013008,1014008,1014007,2013007,2013008,2014008,2014007
236,1013008,1013009,1014009,1014008,2013008,2013009,2014009,2014008
237,1013009,1013010,1014010,1014009,2013009,2013010,2014010,2014009
238,1013010,1013011,1014011,1014010,2013010,2013011,2014011,2014010
239,1013011,1013012,1014012,1014011,2013011,2013012,2014012,2014011
240,1013012,1013013,1014013,1014012,2013012,2013013,2014013,2014012
241,1013013,1013014,1014014,1014013,2013013,2013014,2014014,2014013
242,1013014,1013015,1014015,1014014,2013014,2013015,2014015,2014014
243,1013015,1013016,1014016,1014015,2013015,2013016,2014016,2014015
244,1013016,1013017,1014017,1014016,2013016,2013017,2014017,2014016
245,1013017,1013018,1014018,1014017,2013017,2013018,2014018,2014017
246,1013018,1013019,1014019,1014018,2013018,2013019,2014019,2014018
247,1013019,1013020,1014020,1014019,2013019,2013020,2014020,2014019
248,1013020,1013021,1014021,1014020,2013020,2013021,2014021,2014020
249,1014001,1014002,1015002,1015001,2014001,2014002,2015002,2015001
250,1014002,1014003,1015003,1015002,2014002,2014003,2015003,2015002
251,1014003,1014004,1015004,1015003,2014003,2014004,2015004,2015003
252,1014004,1014005,1015005,1015004,2014004,2014005,2015005,2015004
253,1014005,1014006,1015006,1015005,2014005,2014006,2015006,2015005
254,1014006,1014007,1015007,1015006,2014006,2014007,2015007,2015006
255,1014007,1014008,1015008,1015007,2014007,2014008,2015008,2015007
256,1014008,1014009,1015009,1015008,2014008,2014009,2015009,2015008
257,1014009,1014010,1015010,1015009,2014009,2014010,2015010,2015009
258,1014010,1014011,1015011,1015010,2014010,2014011,2015011,2015010
259,1014011,1014012,1015012,1015011,2014011,2014012,2015012,2015011
260,1014012,1014013,1015013,1015012,2014012,2014013,2015013,2015012
261,1014013,1014014,1015014,1015013,2014013,2014014,2015014,2015013
262,1014014,1014015,1015015,1015014,2014014,2014015,2015015,2015014
263,1014015,1014016,1015016,1015015,2014015,2014016,2015016,2015015
264,1014016,1014017,1015017,1015016,2014016,2014017,2015017,2015016
265,1014017,1014018,1015018,1015017,2014017,2014018,2015018,2015017
266,1014018,1014019,1015019,1015018,2014018,2014019,2015019,2015018
267,1014019,1014020,1015020,1015019,2014019,2014020,2015020,2015019
268,1014020,1014021,1015021,1015020,2014020,2014021,2015021,2015020
269,1015001,1015002,1016002,1016001,2015001,2015002,2016002,2016001
270,1015002,1015003,1016003,1016002,2015002,2015003,2016003,2016002
271,1015003,1015004,1016004,1016003,2015003,2015004,2016004,2016003
272,1015004,1015005,1016005,1016004,2015004,2015005,2016005,2016004
273,1015005,1015006,1016006,1016005,2015005,2015006,2016006,2016005
274,1015006,1015007,1016007,1016006,2015006,2015007,2016007,2016006
275,1015007,1015008,1016008,1016007,2015007,2015008,2016008,2016007
276,1015008,1015009,1016009,1016008,2015008,2015009,2016009,2016008
277,1015009,1015010,1016010,1016009,2015009,2015010,2016010,2016009
278,1015010,1015011,1016011,1016010,2015010,2015011,2016011,2016010
279,1015011,1015012,1016012,1016011,2015011,2015012,2016012,2016011
280,1015012,1015013,1016013,1016012,2015012,2015013,2016013,2016012
281,1015013,1015014,1016014,1016013,2015013,2015014,2016014,2016013
282,1015014,1015015,1016015,1016014,2015014,2015015,2016015,2016014
283,1015015,1015016,1016016,1016015,2015015,2015016,2016016,2016015
284,1015016,1015017,1016017,1016016,2015016,2015017,2016017,2016016
285,1015017,1015018,1016018,1016017,2015017,2015018,2016018,2016017
286,1015018,1015019,1016019,1016018,2015018,2015019,2016019,2016018
287,1015019,1015020,1016020,1016019,2015019,2015020,2016020,2016019
288,1015020,1015021,1016021,1016020,2015020,2015021,2016021,2016020
289,1016001,1016002,1017002,1017001,2016001,2016002,2017002,2017001
290,1016002,1016003,1017003,1017002,2016002,2016003,2017003,2017002
291,1016003,1016004,1017004,1017003,2016003,2016004,2017004,2017003
292,1016004,1016005,1017005,1017004,2016004,2016005,2017005,2017004
293,1016005,1016006,1017006,1017005,2016005,2016006,2017006,2017005
294,1016006,1016007,1017007,1017006,2016006,2016007,2017007,2017006
295,1016007,1016008,1017008,1017007,2016007,2016008,2017008,2017007
296,1016008,1016009,1017009,1017008,2016008,2016009,2017009,2017008
297,1016009,1016010,1017010,1017009,2016009,2016010,2017010,2017009
298,1016010,1016011,1017011,1017010,2016010,2016011,2017011,2017010
299,1016011,1016012,1017012,1017011,2016011,2016012,2017012,2017011
300,1016012,1016013,1017013,1017012,2016012,2016013,2017013,2017012
301,1016013,1016014,1017014,1017013,2016013,2016014,2017014,2017013
302,1016014,1016015,1017015,1017014,2016014,2016015,2017015,2017014
303,1016015,1016016,1017016,1017015,2016015,2016016,2017016,2017015
304,1016016,1016017,1017017,1017016,2016016,2016017,2017017,2017016
305,1016017,1016018,1017018,1017017,2016017,2016018,2017018,2017017
306,1016018,1016019,1017019,1017018,2016018,2016019,2017019,2017018
307,1016019,1016020,1017020,1017019,2016019,2016020,2017020,2017019
308,1016020,1016021,1017021,1017020,2016020,2016021,2017021,2017020
309,1017001,1017002,1018002,1018001,2017001,2017002,2018002,2018001
310,1017002,1017003,1018003,1018002,2017002,2017003,2018003,2018002
311,1017003,1017004,1018004,1018003,2017003,2017004,2018004,2018003
312,1017004,1017005,1018005,1018004,2017004,2017005,2018005,2018004
313,1017005,1017006,1018006,1018005,2017005,2017006,2018006,2018005
314,1017006,1017007,1018007,1018006,2017006,2017007,2018007,2018006
315,1017007,1017008,1018008,1018007,2017007,2017008,2018008,2018007
316,1017008,1017009,1018009,1018008,2017008,2017009,2018009,2018008
317,1017009,1017010,1018010,1018009,2017009,2017010,2018010,2018009
318,1017010,1017011,1018011,1018010,2017010,2017011,2018011,2018010
319,1017011,1017012,1018012,1018011,2017011,2017012,2018012,2018011
320,1017012,1017013,1018013,1018012,2017012,2017013,2018013,2018012
321,1017013,1017014,1018014,1018013,2017013,2017014,2018014,2018013
322,1017014,1017015,1018015,1018014,2017014,2017015,2018015,2018014
323,1017015,1017016,1018016,1018015,2017015,2017016,2018016,2018015
324,1017016,1017017,1018017,1018016,2017016,2017017,2018017,2018016
325,1017017,1017018,1018018,1018017,2017017,2017018,2018018,2018017
326,1017018,1017019,1018019,1018018,2017018,2017019,2018019,2018018
327,1017019,1017020,1018020,1018019,2017019,2017020,2018020,2018019
328,1017020,1017021,1018021,1018020,2017020,2017021,2018021,2018020
329,1018001,1018002,1019002,1019001,2018001,2018002,2019002,2019001
330,1018002,1018003,1019003,1019002,2018002,2018003,2019003,2019002
331,1018003,1018004,1019004,1019003,2018003,2018004,2019004,2019003
332,1018004,1018005,1019005,1019004,2018004,2018005,2019005,2019004
333,1018005,1018006,1019006,1019005,2018005,2018006,2019006,2019005
334,1018006,1018007,1019007,1019006,2018006,2018007,2019007,2019006
335,1018007,1018008,1019008,1019007,2018007,2018008,2019008,2019007
336,1018008,1018009,1019009,1019008,2018008,2018009,2019009,2019008
337,1018009,1018010,1019010,1019009,2018009,2018010,2019010,2019009
338,1018010,1018011,1019011,1019010,2018010,2018011,2019011,2019010
339,1018011,1018012,1019012,1019011,2018011,2018012,2019012,2019011
340,1018012,1018013,1019013,1019012,2018012,2018013,2019013,2019012
341,1018013,1018014,1019014,1019013,2018013,2018014,2019014,2019013
342,1018014,1018015,1019015,1019014,2018014,2018015,2019015,2019014
343,1018015,1018016,1019016,1019015,2018015,2018016,2019016,2019015
344,1018016,1018017,1019017,1019016,2018016,2018017,2019017,2019016
345,1018017,1018018,1019018,1019017,2018017,2018018,2019018,2019017
346,1018018,1018019,1019019,1019018,2018018,2018019,2019019,2019018
347,1018019,1018020,1019020,1019019,2018019,2018020,2019020,2019019
348,1018020,1018021,1019021,1019020,2018020,2018021,2019021,2019020
349,1019001,1019002,1020002,1020001,2019001,2019002,2020002,2020001
350,1019002,1019003,1020003,1020002,2019002,2019003,2020003,2020002
351,1019003,1019004,1020004,1020003,2019003,2019004,2020004,2020003
352,1019004,1019005,1020005,1020004,2019004,2019005,2020005,2020004
353,1019005,1019006,1020006,1020005,2019005,2019006,2020006,2020005
354,1019006,1019007,1020007,1020006,2019006,2019007,2020007,2020006
355,1019007,1019008,1020008,1020007,2019007,2019008,2020008,2020007
356,1019008,1019009,1020009,1020008,2019008,2019009,2020009,2020008
357,1019009,1019010,1020010,1020009,2019009,2019010,2020010,2020009
358,1019010,1019011,1020011,1020010,2019010,2019011,2020011,2020010
359,1019011,1019012,1020012,1020011,2019011,2019012,2020012,2020011
360,1019012,1019013,1020013,1020012,2019012,2019013,2020013,2020012
361,1019013,1019014,1020014,1020013,2019013,2019014,2020014,2020013
362,1019014,1019015,1020015,1020014,2019014,2019015,2020015,2020014
363,1019015,1019016,1020016,1020015,2019015,2019016,2020016,2020015
364,1019016,1019017,1020017,1020016,2019016,2019017,2020017,2020016
365,1019017,1019018,1020018,1020017,2019017,2019018,2020018,2020017
366,1019018,1019019,1020019,1020018,2019018,2019019,2020019,2020018
367,1019019,1019020,1020020,1020019,2019019,2019020,2020020,2020019
368,1019020,1019021,1020021,1020020,2019020,2019021,2020021,2020020
369,2000001,2000002,2001002,2001001,3000001,3000002,3001002,3001001
370,2000002,2000003,2001003,2001002,3000002,3000003,3001003,3001002
371,2000003,2000004,2001004,2001003,3000003,3000004,3001004,3001003
372,2000004,2000005,2001005,2001004,3000004,3000005,3001005,3001004
373,2000005,2000006,2001006,2001005,3000005,3000006,3001006,3001005
374,2000006,2000007,2001007,2001006,3000006,3000007,3001007,3001006
375,2000007,2000008,2001008,2001007,3000007,3000008,3001008,3001007
376,2000008,2000009,2001009,2001008,3000008,3000009,3001009,3001008
377,2000009,2000010,2001010,2001009,3000009,3000010,3001010,3001009
378,2000010,2000011,2001011,2001010,3000010,3000011,3001011,3001010
379,2000011,2000012,2001012,2001011,3000011,3000012,3001012,3001011
380,2000012,2000013,2001013,2001012,3000012,3000013,3001013,3001012
381,2000013,2000014,2001014,2001013,3000013,3000014,3001014,3001013
382,2000014,2000015,2001015,2001014,3000014,3000015,3001015,3001014
383,2000015,2000016,2001016,2001015,3000015,3000016,3001016,3001015
384,2000016,2000017,2001017,2001016,3000016,3000017,3001017,3001016
385,2000017,2000018,2001018,2001017,3000017,3000018,3001018,3001017
386,2000018,2000019,2001019,2001018,3000018,3000019,3001019,3001018
387,2000019,2000020,2001020,2001019,3000019,3000020,3001020,3001019
388,2000020,2000021,2001021,2001020,3000020,3000021,3001021,3001020
389,2001001,2001002,2002002,2002001,3001001,3001002,3002002,3002001
390,2001002,2001003,2002003,2002002,3001002,3001003,3002003,3002002
391,2001003,2001004,2002004,2002003,3001003,3001004,3002004,3002003
392,2001004,2001005,2002005,2002004,3001004,3001005,3002005,3002004
393,2001005,2001006,2002006,2002005,3001005,3001006,3002006,3002005
394,2001006,2001007,2002007,2002006,3001006,3001007,3002007,3002006
395,2001007,2001008,2002008,2002007,3001007,3001008,3002008,3002007
396,2001008,2001009,2002009,2002008,3001008,3001009,3002009,3002008
397,2001009,2001010,2002010,2002009,3001009,3001010,3002010,3002009
398,2001010,2001011,2002011,2002010,3001010,3001011,3002011,3002010
399,2001011,2001012,2002012,2002011,3001011,3001012,3002012,3002011
400,2001012,2001013,2002013,2002012,3001012,3001013,3002013,3002012
401,2001013,2001014,2002014,2002013,3001013,3001014,3002014,3002013
402,2001014,2001015,2002015,2002014,3001014,3001015,3002015,3002014
403,2001015,2001016,2002016,2002015,3001015,3001016,3002016,3002015
404,2001016,2001017,2002017,2002016,3001016,3001017,3002017,3002016
405,2001017,2001018,2002018,2002017,3001017,3001018,3002018,3002017
406,2001018,2001019,2002019,2002018,3001018,3001019,3002019,3002018
407,2001019,2001020,2002020,2002019,3001019,3001020,3002020,3002019
408,2001020,2001021,2002021,2002020,3001020,3001021,3002021,3002020
409,2002001,2002002,2003002,2003001,3002001,3002002,3003002,3003001
410,2002002,2002003,2003003,2003002,3002002,3002003,3003003,3003002
411,2002003,2002004,2003004,2003003,3002003,3002004,3003004,3003003
412,2002004,2002005,2003005,2003004,3002004,3002005,3003005,3003004
413,2002005,2002006,2003006,2003005,3002005,3002006,3003006,3003005
414,2002006,2002007,2003007,2003006,3002006,3002007,3003007,3003006
415,2002007,2002008,2003008,2003007,3002007,3002008,3003008,3003007
416,2002008,2002009,2003009,2003008,3002008,3002009,3003009,3003008
417,2002009,2002010,2003010,2003009,3002009,3002010,3003010,3003009
418,2002010,2002011,2003011,2003010,3002010,3002011,3003011,3003010
419,2002011,2002012,2003012,2003011,3002011,3002012,3003012,3003011
420,2002012,2002013,2003013,2003012,3002012,3002013,3003013,3003012
421,2002013,2002014,2003014,2003013,3002013,3002014,3003014,3003013
422,2002014,2002015,2003015,2003014,3002014,3002015,3003015,3003014
423,2002015,2002016,2003016,2003015,3002015,3002016,3003016,3003015
424,2002016,2002017,2003017,2003016,3002016,3002017,3003017,3003016
425,2002017,2002018,2003018,2003017,3002017,3002018,3003018,3003017
426,2002018,2002019,2003019,2003018,3002018,3002019,3003019,3003018
427,2002019,2002020,2003020,2003019,3002019,3002020,3003020,3003019
428,2002020,2002021,2003021,2003020,3002020,3002021,3003021,3003020
429,2003001,2003002,2004002,2004001,3003001,3003002,3004002,3004001
430,2003002,2003003,2004003,2004002,3003002,3003003,3004003,3004002
431,2003003,2003004,2004004,2004003,3003003,3003004,3004004,3004003
432,2003004,2003005,2004005,2004004,3003004,3003005,3004005,3004004
433,2003005,2003006,2004006,2004005,3003005,3003006,3004006,3004005
434,2003006,2003007,2004007,2004006,3003006,3003007,3004007,3004006
435,2003007,2003008,2004008,2004007,3003007,3003008,3004008,3004007
436,2003008,2003009,2004009,2004008,3003008,3003009,3004009,3004008
437,2003009,2003010,2004010,2004009,3003009,3003010,3004010,3004009
438,2003010,2003011,2004011,2004010,3003010,3003011,3004011,3004010
439,2003011,2003012,2004012,2004011,3003011,3003012,3004012,3004011
440,2003012,2003013,2004013,2004012,3003012,3003013,3004013,3004012
441,2003013,2003014,2004014,2004013,3003013,3003014,3004014,3004013
442,2003014,2003015,2004015,2004014,3003014,3003015,3004015,3004014
443,2003015,2003016,2004016,2004015,3003015,3003016,3004016,3004015
444,2003016,2003017,2004017,2004016,3003016,3003017,3004017,3004016
445,2003017,2003018,2004018,2004017,3003017,3003018,3004018,3004017
446,2003018,2003019,2004019,2004018,3003018,3003019,3004019,3004018
447,2003019,2003020,2004020,2004019,3003019,3003020,3004020,3004019
448,2003020,2003021,2004021,2004020,3003020,3003021,3004021,3004020
449,2004001,2004002,2005002,2005001,3004001,3004002,3005002,3005001
450,2004002,2004003,2005003,2005002,3004002,3004003,3005003,3005002
451,2004003,2004004,2005004,2005003,3004003,3004004,3005004,3005003
452,2004004,2004005,2005005,2005004,3004004,3004005,3005005,3005004
453,2004005,2004006,2005006,2005005,3004005,3004006,3005006,3005005
454,2004006,2004007,2005007,2005006,3004006,3004007,3005007,3005006
455,2004007,2004008,2005008,2005007,3004007,3004008,3005008,3005007
456,2004008,2004009,2005009,2005008,3004008,3004009,3005009,3005008
457,2004009,2004010,2005010,2005009,3004009,3004010,3005010,3005009
458,2004010,2004011,2005011,2005010,3004010,3004011,3005011,3005010
459,2004011,2004012,2005012,2005011,3004011,3004012,3005012,3005011
460,2004012,2004013,2005013,2005012,3004012,3004013,3005013,3005012
461,2004013,2004014,2005014,2005013,3004013,3004014,3005014,3005013
462,2004014,2004015,2005015,2005014,3004014,3004015,3005015,3005014
463,2004015,2004016,2005016,2005015,3004015,3004016,3005016,3005015
464,2004016,2004017,2005017,2005016,3004016,3004017,3005017,3005016
465,2004017,2004018,2005018,2005017,3004017,3004018,3005018,3005017
466,2004018,2004019,2005019,2005018,3004018,3004019,3005019,3005018
467,2004019,2004020,2005020,2005019,3004019,3004020,3005020,3005019
468,2004020,2004021,2005021,2005020,3004020,3004021,3005021,3005020
469,2005001,2005002,2006002,2006001,3005001,3005002,3006002,3006001
470,2005002,2005003,2006003,2006002,3005002,3005003,3006003,3006002
471,2005003,2005004,2006004,2006003,3005003,3005004,3006004,3006003
472,2005004,2005005,2006005,2006004,3005004,3005005,3006005,3006004
473,2005005,2005006,2006006,2006005,3005005,3005006,3006006,3006005
474,2005006,2005007,2006007,2006006,3005006,3005007,3006007,3006006
475,2005007,2005008,2006008,2006007,3005007,3005008,3006008,3006007
476,2005008,2005009,2006009,2006008,3005008,3005009,3006009,3006008
477,2005009,2005010,2006010,2006009,3005009,3005010,3006010,3006009
478,2005010,2005011,2006011,2006010,3005010,3005011,3006011,3006010
479,2005011,2005012,2006012,2006011,3005011,3005012,3006012,3006011
480,2005012,2005013,2006013,2006012,3005012,3005013,3006013,3006012
481,2005013,2005014,2006014,2006013,3005013,3005014,3006014,3006013
482,2005014,2005015,2006015,2006014,3005014,3005015,3006015,3006014
483,2005015,2005016,2006016,2006015,3005015,3005016,3006016,3006015
484,2005016,2005017,2006017,2006016,3005016,3005017,3006017,3006016
485,2005017,2005018,2006018,2006017,3005017,3005018,3006018,3006017
486,2005018,2005019,2006019,2006018,3005018,3005019,3006019,3006018
487,2005019,2005020,2006020,2006019,3005019,3005020,3006020,3006019
488,2005020,2005021,2006021,2006020,3005020,3005021,3006021,3006020
489,2006001,2006002,2007002,2007001,3006001,3006002,3007002,3007001
490,2006002,2006003,2007003,2007002,3006002,3006003,3007003,3007002
491,2006003,2006004,2007004,2007003,3006003,3006004,3007004,3007003
492,2006004,2006005,2007005,2007004,3006004,3006005,3007005,3007004
493,2006005,2006006,2007006,2007005,3006005,3006006,3007006,3007005
494,2006006,2006007,2007007,2007006,3006006,3006007,3007007,3007006
495,2006007,2006008,2007008,2007007,3006007,3006008,3007008,3007007
496,2006008,2006009,2007009,2007008,3006008,3006009,3007009,3007008
497,2006009,2006010,2007010,2007009,3006009,3006010,3007010,3007009
498,2006010,2006011,2007011,2007010,3006010,3006011,3007011,3007010
499,2006011,2006012,2007012,2007011,3006011,3006012,3007012,3007011
500,2006012,2006013,2007013,2007012,3006012,3006013,3007013,3007012
501,2006013,2006014,2007014,2007013,3006013,3006014,3007014,3007013
502,2006014,2006015,2007015,2007014,3006014,3006015,3007015,3007014
503,2006015,2006016,2007016,2007015,3006015,3006016,3007016,3007015
504,2006016,2006017,2007017,2007016,3006016,3006017,3007017,3007016
505,2006017,2006018,2007018,2007017,3006017,3006018,3007018,3007017
506,2006018,2006019,2007019,2007018,3006018,3006019,3007019,3007018
507,2006019,2006020,2007020,2007019,3006019,3006020,3007020,3007019
508,2006020,2006021,2007021,2007020,3006020,3006021,3007021,3007020
509,2007001,2007002,2008002,2008001,3007001,3007002,3008002,3008001
510,2007002,2007003,2008003,2008002,3007002,3007003,3008003,3008002
511,2007003,2007004,2008004,2008003,3007003,3007004,3008004,3008003
512,2007004,2007005,2008005,2008004,3007004,3007005,3008005,3008004
513,2007005,2007006,2008006,2008005,3007005,3007006,3008006,3008005
514,2007006,2007007,2008007,2008006,3007006,3007007,3008007,3008006
515,2007007,2007008,2008008,2008007,3007007,3007008,3008008,3008007
516,2007008,2007009,2008009,2008008,3007008,3007009,3008009,3008008
517,2007013,2007014,2008014,2008013,3007013,3007014,3008014,3008013
518,2007014,2007015,2008015,2008014,3007014,3007015,3008015,3008014
519,2007015,2007016,2008016,2008015,3007015,3007016,3008016,3008015
520,2007016,2007017,2008017,2008016,3007016,3007017,3008017,3008016
521,2007017,2007018,2008018,2008017,3007017,3007018,3008018,3008017
522,2007018,2007019,2008019,2008018,3007018,3007019,3008019,3008018
523,2007019,2007020,2008020,2008019,3007019,3007020,3008020,3008019
524,2007020,2007021,2008021,2008020,3007020,3007021,3008021,3008020
525,2008001,2008002,2009002,2009001,3008001,3008002,3009002,3009001
526,2008002,2008003,2009003,2009002,3008002,3008003,3009003,3009002
527,2008003,2008004,2009004,2009003,3008003,3008004,3009004,3009003
528,2008004,2008005,2009005,2009004,3008004,3008005,3009005,3009004
529,2008005,2008006,2009006,2009005,3008005,3008006,3009006,3009005
530,2008006,2008007,2009007,2009006,3008006,3008007,3009007,3009006
531,2008007,2008008,2009008,2009007,3008007,3008008,3009008,3009007
532,2008014,2008015,2009015,2009014,3008014,3008015,3009015,3009014
533,2008015,2008016,2009016,2009015,3008015,3008016,3009016,3009015
534,2008016,2008017,2009017,2009016,3008016,3008017,3009017,3009016
535,2008017,2008018,2009018,2009017,3008017,3008018,3009018,3009017
536,2008018,2008019,2009019,2009018,3008018,3008019,3009019,3009018
537,2008019,2008020,2009020,2009019,3008019,3008020,3009020,3009019
538,2008020,2008021,2009021,2009020,3008020,3008021,3009021,3009020
539,2009001,2009002,2010002,2010001,3009001,3009002,3010002,3010001
540,2009002,2009003,2010003,2010002,3009002,3009003,3010003,3010002
541,2009003,2009004,2010004,2010003,3009003,3009004,3010004,3010003
542,2009004,2009005,2010005,2010004,3009004,3009005,3010005,3010004
543,2009005,2009006,2010006,2010005,3009005,3009006,3010006,3010005
544,2009006,2009007,2010007,2010006,3009006,3009007,3010007,3010006
545,2009007,2009008,2010008,2010007,3009007,3009008,3010008,3010007
546,2009014,2009015,2010015,2010014,3009014,3009015,3010015,3010014
547,2009015,2009016,2010016,2010015,3009015,3009016,3010016,3010015
548,2009016,2009017,2010017,2010016,3009016,3009017,3010017,3010016
549,2009017,2009018,2010018,2010017,3009017,3009018,3010018,3010017
550,2009018,2009019,2010019,2010018,3009018,3009019,3010019,3010018
551,2009019,2009020,2010020,2010019,3009019,3009020,3010020,3010019
552,2009020,2009021,2010021,2010020,3009020,3009021,3010021,3010020
553,2010001,2010002,2011002,2011001,3010001,3010002,3011002,3011001
554,2010002,2010003,2011003,2011002,3010002,3010003,3011003,3011002
555,2010003,2010004,2011004,2011003,3010003,3010004,3011004,3011003
556,2010004,2010005,2011005,2011004,3010004,3010005,3011005,3011004
557,2010005,2010006,2011006,2011005,3010005,3010006,3011006,3011005
558,2010006,2010007,2011007,2011006,3010006,3010007,3011007,3011006
559,2010007,2010008,2011008,2011007,3010007,3010008,3011008,3011007
560,2010014,2010015,2011015,2011014,3010014,3010015,3011015,3011014
561,2010015,2010016,2011016,2011015,3010015,3010016,3011016,3011015
562,2010016,2010017,2011017,2011016,3010016,3010017,3011017,3011016
563,2010017,2010018,2011018,2011017,3010017,3010018,3011018,3011017
564,2010018,2010019,2011019,2011018,3010018,3010019,3011019,3011018
565,2010019,2010020,2011020,2011019,3010019,3010020,3011020,3011019
566,2010020,2010021,2011021,2011020,3010020,3010021,3011021,3011020
567,2011001,2011002,2012002,2012001,3011001,3011002,3012002,3012001
568,2011002,2011003,2012003,2012002,3011002,3011003,3012003,3012002
569,2011003,2011004,2012004,2012003,3011003,3011004,3012004,3012003
570,2011004,2011005,2012005,2012004,3011004,3011005,3012005,3012004
571,2011005,2011006,2012006,2012005,3011005,3011006,3012006,3012005
572,2011006,2011007,2012007,2012006,3011006,3011007,3012007,3012006
573,2011007,2011008,2012008,2012007,3011007,3011008,3012008,3012007
574,2011014,2011015,2012015,2012014,3011014,3011015,3012015,3012014
575,2011015,2011016,2012016,2012015,3011015,3011016,3012016,3012015
576,2011016,2011017,2012017,2012016,3011016,3011017,3012017,3012016
577,2011017,2011018,2012018,2012017,3011017,3011018,3012018,3012017
578,2011018,2011019,2012019,2012018,3011018,3011019,3012019,3012018
579,2011019,2011020,2012020,2012019,3011019,3011020,3012020,3012019
580,2011020,2011021,2012021,2012020,3011020,3011021,3012021,3012020
581,2012001,2012002,2013002,2013001,3012001,3012002,3013002,3013001
582,2012002,2012003,2013003,2013002,3012002,3012003,3013003,3013002
583,2012003,2012004,2013004,2013003,3012003,3012004,3013004,3013003
584,2012004,2012005,2013005,2013004,3012004,3012005,3013005,3013004
585,2012005,2012006,2013006,2013005,3012005,3012006,3013006,3013005
586,2012006,2012007,2013007,2013006,3012006,3012007,3013007,3013006
587,2012007,2012008,2013008,2013007,3012007,3012008,3013008,3013007
588,2012008,2012009,2013009,2013008,3012008,3012009,3013009,3013008
589,2012013,2012014,2013014,2013013,3012013,3012014,3013014,3013013
590,2012014,2012015,2013015,2013014,3012014,3012015,3013015,3013014
591,2012015,2012016,2013016,2013015,3012015,3012016,3013016,3013015
592,2012016,2012017,2013017,2013016,3012016,3012017,3013017,3013016
593,2012017,2012018,2013018,2013017,3012017,3012018,3013018,3013017
594,2012018,2012019,2013019,2013018,3012018,3012019,3013019,3013018
595,2012019,2012020,2013020,2013019,3012019,3012020,3013020,3013019
596,2012020,2012021,2013021,2013020,3012020,3012021,3013021,3013020
597,2013001,2013002,2014002,2014001,3013001,3013002,3014002,3014001
598,2013002,2013003,2014003,2014002,3013002,3013003,3014003,3014002
599,2013003,2013004,2014004,2014003,3013003,3013004,3014004,3014003
600,2013004,2013005,2014005,2014004,3013004,3013005,3014005,3014004
601,2013005,2013006,2014006,2014005,3013005,3013006,3014006,3014005
602,2013006,2013007,2014007,2014006,3013006,3013007,3014007,3014006
603,2013007,2013008,2014008,2014007,3013007,3013008,3014008,3014007
604,2013008,2013009,2014009,2014008,3013008,3013009,3014009,3014008
605,2013009,2013010,2014010,2014009,3013009,3013010,3014010,3014009
606,2013010,2013011,2014011,2014010,3013010,3013011,3014011,3014010
607,2013011,2013012,2014012,2014011,3013011,3013012,3014012,3014011
608,2013012,2013013,2014013,2014012,3013012,3013013,3014013,3014012
609,2013013,2013014,2014014,2014013,3013013,3013014,3014014,3014013
610,2013014,2013015,2014015,2014014,3013014,3013015,3014015,3014014
611,2013015,2013016,2014016,2014015,3013015,3013016,3014016,3014015
612,2013016,2013017,2014017,2014016,3013016,3013017,3014017,3014016
613,2013017,2013018,2014018,2014017,3013017,3013018,3014018,3014017
614,2013018,2013019,2014019,2014018,3013018,3013019,3014019,3014018
615,2013019,2013020,2014020,2014019,3013019,3013020,3014020,3014019
616,2013020,2013021,2014021,2014020,3013020,3013021,3014021,3014020
617,2014001,2014002,2015002,2015001,3014001,3014002,3015002,3015001
618,2014002,2014003,2015003,2015002,3014002,3014003,3015003,3015002
619,2014003,2014004,2015004,2015003,3014003,3014004,3015004,3015003
620,2014004,2014005,2015005,2015004,3014004,3014005,3015005,3015004
621,2014005,2014006,2015006,2015005,3014005,3014006,3015006,3015005
622,2014006,2014007,2015007,2015006,3014006,3014007,3015007,3015006
623,2014007,2014008,2015008,2015007,3014007,3014008,3015008,3015007
624,2014008,2014009,2015009,2015008,3014008,3014009,3015009,3015008
625,2014009,2014010,2015010,2015009,3014009,3014010,3015010,3015009
626,2014010,2014011,2015011,2015010,3014010,3014011,3015011,3015010
627,2014011,2014012,2015012,2015011,3014011,3014012,3015012,3015011
628,2014012,2014013,2015013,2015012,3014012,3014013,3015013,3015012
629,2014013,2014014,2015014,2015013,3014013,3014014,3015014,3015013
630,2014014,2014015,2015015,2015014,3014014,3014015,3015015,3015014
631,2014015,2014016,2015016,2015015,3014015,3014016,3015016,3015015
632,2014016,2014017,2015017,2015016,3014016,3014017,3015017,3015016
633,2014017,2014018,2015018,2015017,3014017,3014018,3015018,3015017
634,2014018,2014019,2015019,2015018,3014018,3014019,3015019,3015018
635,2014019,2014020,2015020,2015019,3014019,3014020,3015020,3015019
636,2014020,2014021,2015021,2015020,3014020,3014021,3015021,3015020
637,2015001,2015002,2016002,2016001,3015001,3015002,3016002,3016001
638,2015002,2015003,2016003,2016002,3015002,3015003,3016003,3016002
639,2015003,2015004,2016004,2016003,3015003,3015004,3016004,3016003
640,2015004,2015005,2016005,2016004,3015004,3015005,3016005,3016004
641,2015005,2015006,2016006,2016005,3015005,3015006,3016006,3016005
642,2015006,2015007,2016007,2016006,3015006,3015007,3016007,3016006
643,2015007,2015008,2016008,2016007,3015007,3015008,3016008,3016007
644,2015008,2015009,2016009,2016008,3015008,3015009,3016009,3016008
645,2015009,2015010,2016010,2016009,3015009,3015010,3016010,3016009
646,2015010,2015011,2016011,2016010,3015010,3015011,3016011,3016010
647,2015011,2015012,2016012,2016011,3015011,3015012,3016012,3016011
648,2015012,2015013,2016013,2016012,3015012,3015013,3016013,3016012
649,2015013,2015014,2016014,2016013,3015013,3015014,3016014,3016013
650,2015014,2015015,2016015,2016014,3015014,3015015,3016015,3016014
651,2015015,2015016,2016016,2016015,3015015,3015016,3016016,3016015
652,2015016,2015017,2016017,2016016,3015016,3015017,3016017,3016016
653,2015017,2015018,2016018,2016017,3015017,3015018,3016018,3016017
654,2015018,2015019,2016019,2016018,3015018,3015019,3016019,3016018
655,2015019,2015020,2016020,2016019,3015019,3015020,3016020,3016019
656,2015020,2015021,2016021,2016020,3015020,3015021,3016021,3016020
657,2016001,2016002,2017002,2017001,3016001,3016002,3017002,3017001
658,2016002,2016003,2017003,2017002,3016002,3016003,3017003,3017002
659,2016003,2016004,2017004,2017003,3016003,3016004,3017004,3017003
660,2016004,2016005,2017005,2017004,3016004,3016005,3017005,3017004
661,2016005,2016006,2017006,2017005,3016005,3016006,3017006,3017005
662,2016006,2016007,2017007,2017006,3016006,3016007,3017007,3017006
663,2016007,2016008,2017008,2017007,3016007,3016008,3017008,3017007
664,2016008,2016009,2017009,2017008,3016008,3016009,3017009,3017008
665,2016009,2016010,2017010,2017009,3016009,3016010,3017010,3017009
666,2016010,2016011,2017011,2017010,3016010,3016011,3017011,3017010
667,2016011,2016012,2017012,2017011,3016011,3016012,3017012,3017011
668,2016012,2016013,2017013,2017012,3016012,3016013,3017013,3017012
669,2016013,2016014,2017014,2017013,3016013,3016014,3017014,3017013
670,2016014,2016015,2017015,2017014,3016014,3016015,3017015,3017014
671,2016015,2016016,2017016,2017015,3016015,3016016,3017016,3017015
672,2016016,2016017,2017017,2017016,3016016,3016017,3017017,3017016
673,2016017,2016018,2017018,2017017,3016017,3016018,3017018,3017017
674,2016018,2016019,2017019,2017018,3016018,3016019,3017019,3017018
675,2016019,2016020,2017020,2017019,3016019,3016020,3017020,3017019
676,2016020,2016021,2017021,2017020,3016020,3016021,3017021,3017020
677,2017001,2017002,2018002,2018001,3017001,3017002,3018002,3018001
678,2017002,2017003,2018003,2018002,3017002,3017003,3018003,3018002
679,2017003,2017004,2018004,2018003,3017003,3017004,3018004,3018003
680,2017004,2017005,2018005,2018004,3017004,3017005,3018005,3018004
681,2017005,2017006,2018006,2018005,3017005,3017006,3018006,3018005
682,2017006,2017007,2018007,2018006,3017006,3017007,3018007,3018006
683,2017007,2017008,2018008,2018007,3017007,3017008,3018008,3018007
684,2017008,2017009,2018009,2018008,3017008,3017009,3018009,3018008
685,2017009,2017010,2018010,2018009,3017009,3017010,3018010,3018009
686,2017010,2017011,2018011,2018010,3017010,3017011,3018011,3018010
687,2017011,2017012,2018012,2018011,3017011,3017012,3018012,3018011
688,2017012,2017013,2018013,2018012,3017012,3017013,3018013,3018012
689,2017013,2017014,2018014,2018013,3017013,3017014,3018014,3018013
690,2017014,2017015,2018015,2018014,3017014,3017015,3018015,3018014
691,2017015,2017016,2018016,2018015,3017015,3017016,3018016,3018015
692,2017016,2017017,2018017,2018016,3017016,3017017,3018017,3018016
693,2017017,2017018,2018018,2018017,3017017,3017018,3018018,3018017
694,2017018,2017019,2018019,2018018,3017018,3017019,3018019,3018018
695,2017019,2017020,2018020,2018019,3017019,3017020,3018020,3018019
696,2017020,2017021,2018021,2018020,3017020,3017021,3018021,3018020
697,2018001,2018002,2019002,2019001,3018001,3018002,3019002,3019001
698,2018002,2018003,2019003,2019002,3018002,3018003,3019003,3019002
699,2018003,2018004,2019004,2019003,3018003,3018004,3019004,3019003
700,2018004,2018005,2019005,2019004,3018004,3018005,3019005,3019004
701,2018005,2018006,2019006,2019005,3018005,3018006,3019006,3019005
702,2018006,2018007,2019007,2019006,3018006,3018007,3019007,3019006
703,2018007,2018008,2019008,2019007,3018007,3018008,3019008,3019007
704,2018008,2018009,2019009,2019008,3018008,3018009,3019009,3019008
705,2018009,2018010,2019010,2019009,3018009,3018010,3019010,3019009
706,2018010,2018011,2019011,2019010,3018010,3018011,3019011,3019010
707,2018011,2018012,2019012,2019011,3018011,3018012,3019012,3019011
708,2018012,2018013,2019013,2019012,3018012,3018013,3019013,3019012
709,2018013,2018014,2019014,2019013,3018013,3018014,3019014,3019013
710,2018014,2018015,2019015,2019014,3018014,3018015,3019015,3019014
711,2018015,2018016,2019016,2019015,3018015,3018016,3019016,3019015
712,2018016,2018017,2019017,2019016,3018016,3018017,3019017,3019016
713,2018017,2018018,2019018,2019017,3018017,3018018,3019018,3019017
714,2018018,2018019,2019019,2019018,3018018,3018019,3019019,3019018
715,2018019,2018020,2019020,2019019,3018019,3018020,3019020,3019019
716,2018020,2018021,2019021,2019020,3018020,3018021,3019021,3019020
717,2019001,2019002,2020002,2020001,3019001,3019002,3020002,3020001
718,2019002,2019003,2020003,2020002,3019002,3019003,3020003,3020002
719,2019003,2019004,2020004,2020003,3019003,3019004,3020004,3020003
720,2019004,2019005,2020005,2020004,3019004,3019005,3020005,3020004
721,2019005,2019006,2020006,2020005,3019005,3019006,3020006,3020005
722,2019006,2019007,2020007,2020006,3019006,3019007,3020007,3020006
723,2019007,2019008,2020008,2020007,3019007,3019008,3020008,3020007
724,2019008,2019009,2020009,2020008,3019008,3019009,3020009,3020008
725,2019009,2019010,2020010,2020009,3019009,3019010,3020010,3020009
726,2019010,2019011,2020011,2020010,3019010,3019011,3020011,3020010
727,2019011,2019012,2020012,2020011,3019011,3019012,3020012,3020011
728,2019012,2019013,2020013,2020012,3019012,3019013,3020013,3020012
729,2019013,2019014,2020014,2020013,3019013,3019014,3020014,3020013
730,2019014,2019015,2020015,2020014,3019014,3019015,3020015,3020014
731,2019015,2019016,2020016,2020015,3019015,3019016,3020016,3020015
732,2019016,2019017,2020017,2020016,3019016,3019017,3020017,3020016
733,2019017,2019018,2020018,2020017,3019017,3019018,3020018,3020017
734,2019018,2019019,2020019,2020018,3019018,3019019,3020019,3020018
735,2019019,2019020,2020020,2020019,3019019,3019020,3020020,3020019
736,2019020,2019021,2020021,2020020,3019020,3019021,3020021,3020020
737,4000001,4000002,4001002,4001001,5000001,5000002,5001002,5001001
738,4000002,4000003,4001003,4001002,5000002,5000003,5001003,5001002
739,4000003,4000004,4001004,4001003,5000003,5000004,5001004,5001003
740,4000004,4000005,4001005,4001004,5000004,5000005,5001005,5001004
741,4000005,4000006,4001006,4001005,5000005,5000006,5001006,5001005
742,4000006,4000007,4001007,4001006,5000006,5000007,5001007,5001006
743,4000007,4000008,4001008,4001007,5000007,5000008,5001008,5001007
744,4000008,4000009,4001009,4001008,5000008,5000009,5001009,5001008
745,4000009,4000010,4001010,4001009,5000009,5000010,5001010,5001009
746,4000010,4000011,4001011,4001010,5000010,5000011,5001011,5001010
747,4000011,4000012,4001012,4001011,5000011,5000012,5001012,5001011
748,4000012,4000013,4001013,4001012,5000012,5000013,5001013,5001012
749,4000013,4000014,4001014,4001013,5000013,5000014,5001014,5001013
750,4000014,4000015,4001015,4001014,5000014,5000015,5001015,5001014
751,4000015,4000016,4001016,4001015,5000015,5000016,5001016,5001015
752,4000016,4000017,4001017,4001016,5000016,5000017,5001017,5001016
753,4000017,4000018,4001018,4001017,5000017,5000018,5001018,5001017
754,4000018,4000019,4001019,4001018,5000018,5000019,5001019,5001018
755,4000019,4000020,4001020,4001019,5000019,5000020,5001020,5001019
756,4000020,4000021,4001021,4001020,5000020,5000021,5001021,5001020
757,4001001,4001002,4002002,4002001,5001001,5001002,5002002,5002001
758,4001002,4001003,4002003,4002002,5001002,5001003,5002003,5002002
759,4001003,4001004,4002004,4002003,5001003,5001004,5002004,5002003
760,4001004,4001005,4002005,4002004,5001004,5001005,5002005,5002004
761,4001005,4001006,4002006,4002005,5001005,5001006,5002006,5002005
762,4001006,4001007,4002007,4002006,5001006,5001007,5002007,5002006
763,4001007,4001008,4002008,4002007,5001007,5001008,5002008,5002007
764,4001008,4001009,4002009,4002008,5001008,5001009,5002009,5002008
765,4001009,4001010,4002010,4002009,5001009,5001010,5002010,5002009
766,4001010,4001011,4002011,4002010,5001010,5001011,5002011,5002010
767,4001011,4001012,4002012,4002011,5001011,5001012,5002012,5002011
768,4001012,4001013,4002013,4002012,5001012,5001013,5002013,5002012
769,4001013,4001014,4002014,4002013,5001013,5001014,5002014,5002013
770,4001014,4001015,4002015,4002014,5001014,5001015,5002015,5002014
771,4001015,4001016,4002016,4002015,5001015,5001016,5002016,5002015
772,4001016,4001017,4002017,4002016,5001016,5001017,5002017,5002016
773,4001017,4001018,4002018,4002017,5001017,5001018,5002018,5002017
774,4001018,4001019,4002019,4002018,5001018,5001019,5002019,5002018
775,4001019,4001020,4002020,4002019,5001019,5001020,5002020,5002019
776,4001020,4001021,4002021,4002020,5001020,5001021,5002021,5002020
777,4002001,4002002,4003002,4003001,5002001,5002002,5003002,5003001
778,4002002,4002003,4003003,4003002,5002002,5002003,5003003,5003002
779,4002003,4002004,4003004,4003003,5002003,5002004,5003004,5003003
780,4002004,4002005,4003005,4003004,5002004,5002005,5003005,5003004
781,4002005,4002006,4003006,4003005,5002005,5002006,5003006,5003005
782,4002006,4002007,4003007,4003006,5002006,5002007,5003007,5003006
783,4002007,4002008,4003008,4003007,5002007,5002008,5003008,5003007
784,4002008,4002009,4003009,4003008,5002008,5002009,5003009,5003008
785,4002009,4002010,4003010,4003009,5002009,5002010,5003010,5003009
786,4002010,4002011,4003011,4003010,5002010,5002011,5003011,5003010
787,4002011,4002012,4003012,4003011,5002011,5002012,5003012,5003011
788,4002012,4002013,4003013,4003012,5002012,5002013,5003013,5003012
789,4002013,4002014,4003014,4003013,5002013,5002014,5003014,5003013
790,4002014,4002015,4003015,4003014,5002014,5002015,5003015,5003014
791,4002015,4002016,4003016,4003015,5002015,5002016,5003016,5003015
792,4002016,4002017,4003017,4003016,5002016,5002017,5003017,5003016
793,4002017,4002018,4003018,4003017,5002017,5002018,5003018,5003017
794,4002018,4002019,4003019,4003018,5002018,5002019,5003019,5003018
795,4002019,4002020,4003020,4003019,5002019,5002020,5003020,5003019
796,4002020,4002021,4003021,4003020,5002020,5002021,5003021,5003020
797,4003001,4003002,4004002,4004001,5003001,5003002,5004002,5004001
798,4003002,4003003,4004003,4004002,5003002,5003003,5004003,5004002
799,4003003,4003004,4004004,4004003,5003003,5003004,5004004,5004003
800,4003004,4003005,4004005,4004004,5003004,5003005,5004005,5004004
801,4003005,4003006,4004006,4004005,5003005,5003006,5004006,5004005
802,4003006,4003007,4004007,4004006,5003006,5003007,5004007,5004006
803,4003007,4003008,4004008,4004007,5003007,5003008,5004008,5004007
804,4003008,4003009,4004009,4004008,5003008,5003009,5004009,5004008
805,4003013,4003014,4004014,4004013,5003013,5003014,5004014,5004013
806,4003014,4003015,4004015,4004014,5003014,5003015,5004015,5004014
807,4003015,4003016,4004016,4004015,5003015,5003016,5004016,5004015
808,4003016,4003017,4004017,4004016,5003016,5003017,5004017,5004016
809,4003017,4003018,4004018,4004017,5003017,5003018,5004018,5004017
810,4003018,4003019,4004019,4004018,5003018,5003019,5004019,5004018
811,4003019,4003020,4004020,4004019,5003019,5003020,5004020,5004019
812,4003020,4003021,4004021,4004020,5003020,5003021,5004021,5004020
813,4004001,4004002,4005002,4005001,5004001,5004002,5005002,5005001
814,4004002,4004003,4005003,4005002,5004002,5004003,5005003,5005002
815,4004003,4004004,4005004,4005003,5004003,5004004,5005004,5005003
816,4004004,4004005,4005005,4005004,5004004,5004005,5005005,5005004
817,4004005,4004006,4005006,4005005,5004005,5004006,5005006,5005005
818,4004006,4004007,4005007,4005006,5004006,5004007,5005007,5005006
819,4004015,4004016,4005016,4005015,5004015,5004016,5005016,5005015
820,4004016,4004017,4005017,4005016,5004016,5004017,5005017,5005016
821,4004017,4004018,4005018,4005017,5004017,5004018,5005018,5005017
822,4004018,4004019,4005019,4005018,5004018,5004019,5005019,5005018
823,4004019,4004020,4005020,4005019,5004019,5004020,5005020,5005019
824,4004020,4004021,4005021,4005020,5004020,5004021,5005021,5005020
825,4005001,4005002,4006002,4006001,5005001,5005002,5006002,5006001
826,4005002,4005003,4006003,4006002,5005002,5005003,5006003,5006002
827,4005003,4005004,4006004,4006003,5005003,5005004,5006004,5006003
828,4005004,4005005,4006005,4006004,5005004,5005005,5006005,5006004
829,4005005,4005006,4006006,4006005,5005005,5005006,5006006,5006005
830,4005016,4005017,4006017,4006016,5005016,5005017,5006017,5006016
831,4005017,4005018,4006018,4006017,5005017,5005018,5006018,5006017
832,4005018,4005019,4006019,4006018,5005018,5005019,5006019,5006018
833,4005019,4005020,4006020,4006019,5005019,5005020,5006020,5006019
834,4005020,4005021,4006021,4006020,5005020,5005021,5006021,5006020
835,4006001,4006002,4007002,4007001,5006001,5006002,5007002,5007001
836,4006002,4006003,4007003,4007002,5006002,5006003,5007003,5007002
837,4006003,4006004,4007004,4007003,5006003,5006004,5007004,5007003
838,4006004,4006005,4007005,4007004,5006004,5006005,5007005,5007004
839,4006017,4006018,4007018,4007017,5006017,5006018,5007018,5007017
840,4006018,4006019,4007019,4007018,5006018,5006019,5007019,5007018
841,4006019,4006020,4007020,4007019,5006019,5006020,5007020,5007019
842,4006020,4006021,4007021,4007020,5006020,5006021,5007021,5007020
843,4007001,4007002,4008002,4008001,5007001,5007002,5008002,5008001
844,4007002,4007003,4008003,4008002,5007002,5007003,5008003,5008002
845,4007003,4007004,4008004,4008003,5007003,5007004,5008004,5008003
846,4007004,4007005,4008005,4008004,5007004,5007005,5008005,5008004
847,4007017,4007018,4008018,4008017,5007017,5007018,5008018,5008017
848,4007018,4007019,4008019,4008018,5007018,5007019,5008019,5008018
849,4007019,4007020,4008020,4008019,5007019,5007020,5008020,5008019
850,4007020,4007021,4008021,4008020,5007020,5007021,5008021,5008020
851,4008001,4008002,4009002,4009001,5008001,5008002,5009002,5009001
852,4008002,4008003,4009003,4009002,5008002,5008003,5009003,5009002
853,4008003,4008004,4009004,4009003,5008003,5008004,5009004,5009003
854,4008018,4008019,4009019,4009018,5008018,5008019,5009019,5009018
855,4008019,4008020,4009020,4009019,5008019,5008020,5009020,5009019
856,4008020,4008021,4009021,4009020,5008020,5008021,5009021,5009020
857,4009001,4009002,4010002,4010001,5009001,5009002,5010002,5010001
858,4009002,4009003,4010003,4010002,5009002,5009003,5010003,5010002
859,4009003,4009004,4010004,4010003,5009003,5009004,5010004,5010003
860,4009018,4009019,4010019,4010018,5009018,5009019,5010019,5010018
861,4009019,4009020,4010020,4010019,5009019,5009020,5010020,5010019
862,4009020,4009021,4010021,4010020,5009020,5009021,5010021,5010020
863,4010001,4010002,4011002,4011001,5010001,5010002,5011002,5011001
864,4010002,4010003,4011003,4011002,5010002,5010003,5011003,5011002
865,4010003,4010004,4011004,4011003,5010003,5010004,5011004,5011003
866,4010018,4010019,4011019,4011018,5010018,5010019,5011019,5011018
867,4010019,4010020,4011020,4011019,5010019,5010020,5011020,5011019
868,4010020,4010021,4011021,4011020,5010020,5010021,5011021,5011020
869,4011001,4011002,4012002,4012001,5011001,5011002,5012002,5012001
870,4011002,4011003,4012003,4012002,5011002,5011003,5012003,5012002
871,4011003,4011004,4012004,4012003,5011003,5011004,5012004,5012003
872,4011018,4011019,4012019,4012018,5011018,5011019,5012019,5012018
873,4011019,4011020,4012020,4012019,5011019,5011020,5012020,5012019
874,4011020,4011021,4012021,4012020,5011020,5011021,5012021,5012020
875,4012001,4012002,4013002,4013001,5012001,5012002,5013002,5013001
876,4012002,4012003,4013003,4013002,5012002,5012003,5013003,5013002
877,4012003,4012004,4013004,4013003,5012003,5012004,5013004,5013003
878,4012004,4012005,4013005,4013004,5012004,5012005,5013005,5013004
879,4012017,4012018,4013018,4013017,5012017,5012018,5013018,5013017
880,4012018,4012019,4013019,4013018,5012018,5012019,5013019,5013018
881,4012019,4012020,4013020,4013019,5012019,5012020,5013020,5013019
882,4012020,4012021,4013021,4013020,5012020,5012021,5013021,5013020
883,4013001,4013002,4014002,4014001,5013001,5013002,5014002,5014001
884,4013002,4013003,4014003,4014002,5013002,5013003,5014003,5014002
885,4013003,4013004,4014004,4014003,5013003,5013004,5014004,5014003
886,4013004,4013005,4014005,4014004,5013004,5013005,5014005,5014004
887,4013017,4013018,4014018,4014017,5013017,5013018,5014018,5014017
888,4013018,4013019,4014019,4014018,5013018,5013019,5014019,5014018
889,4013019,4013020,4014020,4014019,5013019,5013020,5014020,5014019
890,4013020,4013021,4014021,4014020,5013020,5013021,5014021,5014020
891,4014001,4014002,4015002,4015001,5014001,5014002,5015002,5015001
892,4014002,4014003,4015003,4015002,5014002,5014003,5015003,5015002
893,4014003,4014004,4015004,4015003,5014003,5014004,5015004,5015003
894,4014004,4014005,4015005,4015004,5014004,5014005,5015005,5015004
895,4014005,4014006,4015006,4015005,5014005,5014006,5015006,5015005
896,4014016,4014017,4015017,4015016,5014016,5014017,5015017,5015016
897,4014017,4014018,4015018,4015017,5014017,5014018,5015018,5015017
898,4014018,4014019,4015019,4015018,5014018,5014019,5015019,5015018
899,4014019,4014020,4015020,4015019,5014019,5014020,5015020,5015019
900,4014020,4014021,4015021,4015020,5014020,5014021,5015021,5015020
901,4015001,4015002,4016002,4016001,5015001,5015002,5016002,5016001
902,4015002,4015003,4016003,4016002,5015002,5015003,5016003,5016002
903,4015003,4015004,4016004,4016003,5015003,5015004,5016004,5016003
904,4015004,4015005,4016005,4016004,5015004,5015005,5016005,5016004
905,4015005,4015006,4016006,4016005,5015005,5015006,5016006,5016005
906,4015006,4015007,4016007,4016006,5015006,5015007,5016007,5016006
907,4015015,4015016,4016016,4016015,5015015,5015016,5016016,5016015
908,4015016,4015017,4016017,4016016,5015016,5015017,5016017,5016016
909,4015017,4015018,4016018,4016017,5015017,5015018,5016018,5016017
910,4015018,4015019,4016019,4016018,5015018,5015019,5016019,5016018
911,4015019,4015020,4016020,4016019,5015019,5015020,5016020,5016019
912,4015020,4015021,4016021,4016020,5015020,5015021,5016021,5016020
913,4016001,4016002,4017002,4017001,5016001,5016002,5017002,5017001
914,4016002,4016003,4017003,4017002,5016002,5016003,5017003,5017002
915,4016003,4016004,4017004,4017003,5016003,5016004,5017004,5017003
916,4016004,4016005,4017005,4017004,5016004,5016005,5017005,5017004
917,4016005,4016006,4017006,4017005,5016005,5016006,5017006,5017005
918,4016006,4016007,4017007,4017006,5016006,5016007,5017007,5017006
919,4016007,4016008,4017008,4017007,5016007,5016008,5017008,5017007
920,4016008,4016009,4017009,4017008,5016008,5016009,5017009,5017008
921,4016013,4016014,4017014,4017013,5016013,5016014,5017014,5017013
922,4016014,4016015,4017015,4017014,5016014,5016015,5017015,5017014
923,4016015,4016016,4017016,4017015,5016015,5016016,5017016,5017015
924,4016016,4016017,4017017,4017016,5016016,5016017,5017017,5017016
925,4016017,4016018,4017018,4017017,5016017,5016018,5017018,5017017
926,4016018,4016019,4017019,4017018,5016018,5016019,5017019,5017018
927,4016019,4016020,4017020,4017019,5016019,5016020,5017020,5017019
928,4016020,4016021,4017021,4017020,5016020,5016021,5017021,5017020
929,4017001,4017002,4018002,4018001,5017001,5017002,5018002,5018001
930,4017002,4017003,4018003,4018002,5017002,5017003,5018003,5018002
931,4017003,4017004,4018004,4018003,5017003,5017004,5018004,5018003
932,4017004,4017005,4018005,4018004,5017004,5017005,5018005,5018004
933,4017005,4017006,4018006,4018005,5017005,5017006,5018006,5018005
934,4017006,4017007,4018007,4018006,5017006,5017007,5018007,5018006
935,4017007,4017008,4018008,4018007,5017007,5017008,5018008,5018007
936,4017008,4017009,4018009,4018008,5017008,5017009,5018009,5018008
937,4017009,4017010,4018010,4018009,5017009,5017010,5018010,5018009
938,4017010,4017011,4018011,4018010,5017010,5017011,5018011,5018010
939,4017011,4017012,4018012,4018011,5017011,5017012,5018012,5018011
940,4017012,4017013,4018013,4018012,5017012,5017013,5018013,5018012
941,4017013,4017014,4018014,4018013,5017013,5017014,5018014,5018013
942,4017014,4017015,4018015,4018014,5017014,5017015,5018015,5018014
943,4017015,4017016,4018016,4018015,5017015,5017016,5018016,5018015
944,4017016,4017017,4018017,4018016,5017016,5017017,5018017,5018016
945,4017017,4017018,4018018,4018017,5017017,5017018,5018018,5018017
946,4017018,4017019,4018019,4018018,5017018,5017019,5018019,5018018
947,4017019,4017020,4018020,4018019,5017019,5017020,5018020,5018019
948,4017020,4017021,4018021,4018020,5017020,5017021,5018021,5018020
949,4018001,4018002,4019002,4019001,5018001,5018002,5019002,5019001
950,4018002,4018003,4019003,4019002,5018002,5018003,5019003,5019002
951,4018003,4018004,4019004,4019003,5018003,5018004,5019004,5019003
952,4018004,4018005,4019005,4019004,5018004,5018005,5019005,5019004
953,4018005,4018006,4019006,4019005,5018005,5018006,5019006,5019005
954,4018006,4018007,4019007,4019006,5018006,5018007,5019007,5019006
955,4018007,4018008,4019008,4019007,5018007,5018008,5019008,5019007
956,4018008,4018009,4019009,4019008,5018008,5018009,5019009,5019008
957,4018009,4018010,4019010,4019009,5018009,5018010,5019010,5019009
958,4018010,4018011,4019011,4019010,5018010,5018011,5019011,5019010
959,4018011,4018012,4019012,4019011,5018011,5018012,5019012,5019011
960,4018012,4018013,4019013,4019012,5018012,5018013,5019013,5019012
961,4018013,4018014,4019014,4019013,5018013,5018014,5019014,5019013
962,4018014,4018015,4019015,4019014,5018014,5018015,5019015,5019014
963,4018015,4018016,4019016,4019015,5018015,5018016,5019016,5019015
964,4018016,4018017,4019017,4019016,5018016,5018017,5019017,5019016
965,4018017,4018018,4019018,4019017,5018017,5018018,5019018,5019017
966,4018018,4018019,4019019,4019018,5018018,5018019,5019019,5019018
967,4018019,4018020,4019020,4019019,5018019,5018020,5019020,5019019
968,4018020,4018021,4019021,4019020,5018020,5018021,5019021,5019020
969,4019001,4019002,4020002,4020001,5019001,5019002,5020002,5020001
970,4019002,4019003,4020003,4020002,5019002,5019003,5020003,5020002
971,4019003,4019004,4020004,4020003,5019003,5019004,5020004,5020003
972,4019004,4019005,4020005,4020004,5019004,5019005,5020005,5020004
973,4019005,4019006,4020006,4020005,5019005,5019006,5020006,5020005
974,4019006,4019007,4020007,4020006,5019006,5019007,5020007,5020006
975,4019007,4019008,4020008,4020007,5019007,5019008,5020008,5020007
976,4019008,4019009,4020009,4020008,5019008,5019009,5020009,5020008
977,4019009,4019010,4020010,4020009,5019009,5019010,5020010,5020009
978,4019010,4019011,4020011,4020010,5019010,5019011,5020011,5020010
979,4019011,4019012,4020012,4020011,5019011,5019012,5020012,5020011
980,4019012,4019013,4020013,4020012,5019012,5019013,5020013,5020012
981,4019013,4019014,4020014,4020013,5019013,5019014,5020014,5020013
982,4019014,4019015,4020015,4020014,5019014,5019015,5020015,5020014
983,4019015,4019016,4020016,4020015,5019015,5019016,5020016,5020015
984,4019016,4019017,4020017,4020016,5019016,5019017,5020017,5020016
985,4019017,4019018,4020018,4020017,5019017,5019018,5020018,5020017
986,4019018,4019019,4020019,4020018,5019018,5019019,5020019,5020018
987,4019019,4019020,4020020,4020019,5019019,5019020,5020020,5020019
988,4019020,4019021,4020021,4020020,5019020,5019021,5020021,5020020
989,5000001,5000002,5001002,5001001,6000001,6000002,6001002,6001001
990,5000002,5000003,5001003,5001002,6000002,6000003,6001003,6001002
991,5000003,5000004,5001004,5001003,6000003,6000004,6001004,6001003
992,5000004,5000005,5001005,5001004,6000004,6000005,6001005,6001004
993,5000005,5000006,5001006,5001005,6000005,6000006,6001006,6001005
994,5000006,5000007,5001007,5001006,6000006,6000007,6001007,6001006
995,5000007,5000008,5001008,5001007,6000007,6000008,6001008,6001007
996,5000008,5000009,5001009,5001008,6000008,6000009,6001009,6001008
997,5000009,5000010,5001010,5001009,6000009,6000010,6001010,6001009
998,5000010,5000011,5001011,5001010,6000010,6000011,6001011,6001010
999,5000011,5000012,5001012,5001011,6000011,6000012,6001012,6001011
1000,5000012,5000013,5001013,5001012,6000012,6000013,6001013,6001012
1001,5000013,5000014,5001014,5001013,6000013,6000014,6001014,6001013
1002,5000014,5000015,5001015,5001014,6000014,6000015,6001015,6001014
1003,5000015,5000016,5001016,5001015,6000015,6000016,6001016,6001015
1004,5000016,5000017,5001017,5001016,6000016,6000017,6001017,6001016
1005,5000017,5000018,5001018,5001017,6000017,6000018,6001018,6001017
1006,5000018,5000019,5001019,5001018,6000018,6000019,6001019,6001018
1007,5000019,5000020,5001020,5001019,6000019,6000020,6001020,6001019
1008,5000020,5000021,5001021,5001020,6000020,6000021,6001021,6001020
1009,5001001,5001002,5002002,5002001,6001001,6001002,6002002,6002001
1010,5001002,5001003,5002003,5002002,6001002,6001003,6002003,6002002
1011,5001003,5001004,5002004,5002003,6001003,6001004,6002004,6002003
1012,5001004,5001005,5002005,5002004,6001004,6001005,6002005,6002004
1013,5001005,5001006,5002006,5002005,6001005,6001006,6002006,6002005
1014,5001006,5001007,5002007,5002006,6001006,6001007,6002007,6002006
1015,5001007,5001008,5002008,5002007,6001007,6001008,6002008,6002007
1016,5001008,5001009,5002009,5002008,6001008,6001009,6002009,6002008
1017,5001009,5001010,5002010,5002009,6001009,6001010,6002010,6002009
1018,5001010,5001011,5002011,5002010,6001010,6001011,6002011,6002010
1019,5001011,5001012,5002012,5002011,6001011,6001012,6002012,6002011
1020,5001012,5001013,5002013,5002012,6001012,6001013,6002013,6002012
1021,5001013,5001014,5002014,5002013,6001013,6001014,6002014,6002013
1022,5001014,5001015,5002015,5002014,6001014,6001015,6002015,6002014
1023,5001015,5001016,5002016,5002015,6001015,6001016,6002016,6002015
1024,5001016,5001017,5002017,5002016,6001016,6001017,6002017,6002016
1025,5001017,5001018,5002018,5002017,6001017,6001018,6002018,6002017
1026,5001018,5001019,5002019,5002018,6001018,6001019,6002019,6002018
1027,5001019,5001020,5002020,5002019,6001019,6001020,6002020,6002019
1028,5001020,5001021,5002021,5002020,6001020,6001021,6002021,6002020
1029,5002001,5002002,5003002,5003001,6002001,6002002,6003002,6003001
1030,5002002,5002003,5003003,5003002,6002002,6002003,6003003,6003002
1031,5002003,5002004,5003004,5003003,6002003,6002004,6003004,6003003
1032,5002004,5002005,5003005,5003004,6002004,6002005,6003005,6003004
1033,5002005,5002006,5003006,5003005,6002005,6002006,6003006,6003005
1034,5002006,5002007,5003007,5003006,6002006,6002007,6003007,6003006
1035,5002007,5002008,5003008,5003007,6002007,6002008,6003008,6003007
1036,5002008,5002009,5003009,5003008,6002008,6002009,6003009,6003008
1037,5002009,5002010,5003010,5003009,6002009,6002010,6003010,6003009
1038,5002010,5002011,5003011,5003010,6002010,6002011,6003011,6003010
1039,5002011,5002012,5003012,5003011,6002011,6002012,6003012,6003011
1040,5002012,5002013,5003013,5003012,6002012,6002013,6003013,6003012
1041,5002013,5002014,5003014,5003013,6002013,6002014,6003014,6003013
1042,5002014,5002015,5003015,5003014,6002014,6002015,6003015,6003014
1043,5002015,5002016,5003016,5003015,6002015,6002016,6003016,6003015
1044,5002016,5002017,5003017,5003016,6002016,6002017,6003017,6003016
1045,5002017,5002018,5003018,5003017,6002017,6002018,6003018,6003017
1046,5002018,5002019,5003019,5003018,6002018,6002019,6003019,6003018
1047,5002019,5002020,5003020,5003019,6002019,6002020,6003020,6003019
1048,5002020,5002021,5003021,5003020,6002020,6002021,6003021,6003020
1049,5003001,5003002,5004002,5004001,6003001,6003002,6004002,6004001
1050,5003002,5003003,5004003,5004002,6003002,6003003,6004003,6004002
1051,5003003,5003004,5004004,5004003,6003003,6003004,6004004,6004003
1052,5003004,5003005,5004005,5004004,6003004,6003005,6004005,6004004
1053,5003005,5003006,5004006,5004005,6003005,6003006,6004006,6004005
1054,5003006,5003007,5004007,5004006,6003006,6003007,6004007,6004006
1055,5003007,5003008,5004008,5004007,6003007,6003008,6004008,6004007
1056,5003008,5003009,5004009,5004008,6003008,6003009,6004009,6004008
1057,5003013,5003014,5004014,5004013,6003013,6003014,6004014,6004013
1058,5003014,5003015,5004015,5004014,6003014,6003015,6004015,6004014
1059,5003015,5003016,5004016,5004015,6003015,6003016,6004016,6004015
1060,5003016,5003017,5004017,5004016,6003016,6003017,6004017,6004016
1061,5003017,5003018,5004018,5004017,6003017,6003018,6004018,6004017
1062,5003018,5003019,5004019,5004018,6003018,6003019,6004019,6004018
1063,5003019,5003020,5004020,5004019,6003019,6003020,6004020,6004019
1064,5003020,5003021,5004021,5004020,6003020,6003021,6004021,6004020
1065,5004001,5004002,5005002,5005001,6004001,6004002,6005002,6005001
1066,5004002,5004003,5005003,5005002,6004002,6004003,6005003,6005002
1067,5004003,5004004,5005004,5005003,6004003,6004004,6005004,6005003
1068,5004004,5004005,5005005,5005004,6004004,6004005,6005005,6005004
1069,5004005,5004006,5005006,5005005,6004005,6004006,6005006,6005005
1070,5004006,5004007,5005007,5005006,6004006,6004007,6005007,6005006
1071,5004015,5004016,5005016,5005015,6004015,6004016,6005016,6005015
1072,5004016,5004017,5005017,5005016,6004016,6004017,6005017,6005016
1073,5004017,5004018,5005018,5005017,6004017,6004018,6005018,6005017
1074,5004018,5004019,5005019,5005018,6004018,6004019,6005019,6005018
1075,5004019,5004020,5005020,5005019,6004019,6004020,6005020,6005019
1076,5004020,5004021,5005021,5005020,6004020,6004021,6005021,6005020
1077,5005001,5005002,5006002,5006001,6005001,6005002,6006002,6006001
1078,5005002,5005003,5006003,5006002,6005002,6005003,6006003,6006002
1079,5005003,5005004,5006004,5006003,6005003,6005004,6006004,6006003
1080,5005004,5005005,5006005,5006004,6005004,6005005,6006005,6006004
1081,5005005,5005006,5006006,5006005,6005005,6005006,6006006,6006005
1082,5005016,5005017,5006017,5006016,6005016,6005017,6006017,6006016
1083,5005017,5005018,5006018,5006017,6005017,6005018,6006018,6006017
1084,5005018,5005019,5006019,5006018,6005018,6005019,6006019,6006018
1085,5005019,5005020,5006020,5006019,6005019,6005020,6006020,6006019
1086,5005020,5005021,5006021,5006020,6005020,6005021,6006021,6006020
1087,5006001,5006002,5007002,5007001,6006001,6006002,6007002,6007001
1088,5006002,5006003,5007003,5007002,6006002,6006003,6007003,6007002
1089,5006003,5006004,5007004,5007003,6006003,6006004,6007004,6007003
1090,5006004,5006005,5007005,5007004,6006004,6006005,6007005,6007004
1091,5006017,5006018,5007018,5007017,6006017,6006018,6007018,6007017
1092,5006018,5006019,5007019,5007018,6006018,6006019,6007019,6007018
1093,5006019,5006020,5007020,5007019,6006019,6006020,6007020,6007019
1094,5006020,5006021,5007021,5007020,6006020,6006021,6007021,6007020
1095,5007001,5007002,5008002,5008001,6007001,6007002,6008002,6008001
1096,5007002,5007003,5008003,5008002,6007002,6007003,6008003,6008002
1097,5007003,5007004,5008004,5008003,6007003,6007004,6008004,6008003
1098,5007004,5007005,5008005,5008004,6007004,6007005,6008005,6008004
1099,5007017,5007018,5008018,5008017,6007017,6007018,6008018,6008017
1100,5007018,5007019,5008019,5008018,6007018,6007019,6008019,6008018
1101,5007019,5007020,5008020,5008019,6007019,6007020,6008020,6008019
1102,5007020,5007021,5008021,5008020,6007020,6007021,6008021,6008020
1103,5008001,5008002,5009002,5009001,6008001,6008002,6009002,6009001
1104,5008002,5008003,5009003,5009002,6008002,6008003,6009003,6009002
1105,5008003,5008004,5009004,5009003,6008003,6008004,6009004,6009003
1106,5008018,5008019,5009019,5009018,6008018,6008019,6009019,6009018
1107,5008019,5008020,5009020,5009019,6008019,6008020,6009020,6009019
1108,5008020,5008021,5009021,5009020,6008020,6008021,6009021,6009020
1109,5009001,5009002,5010002,5010001,6009001,6009002,6010002,6010001
1110,5009002,5009003,5010003,5010002,6009002,6009003,6010003,6010002
1111,5009003,5009004,5010004,5010003,6009003,6009004,6010004,6010003
1112,5009018,5009019,5010019,5010018,6009018,6009019,6010019,6010018
1113,5009019,5009020,5010020,5010019,6009019,6009020,6010020,6010019
1114,5009020,5009021,5010021,5010020,6009020,6009021,6010021,6010020
1115,5010001,5010002,5011002,5011001,6010001,6010002,6011002,6011001
1116,5010002,5010003,5011003,5011002,6010002,6010003,6011003,6011002
1117,5010003,5010004,5011004,5011003,6010003,6010004,6011004,6011003
1118,5010018,5010019,5011019,5011018,6010018,6010019,6011019,6011018
1119,5010019,5010020,5011020,5011019,6010019,6010020,6011020,6011019
1120,5010020,5010021,5011021,5011020,6010020,6010021,6011021,6011020
1121,5011001,5011002,5012002,5012001,6011001,6011002,6012002,6012001
1122,5011002,5011003,5012003,5012002,6011002,6011003,6012003,6012002
1123,5011003,5011004,5012004,5012003,6011003,6011004,6012004,6012003
1124,5011018,5011019,5012019,5012018,6011018,6011019,6012019,6012018
1125,5011019,5011020,5012020,5012019,6011019,6011020,6012020,6012019
1126,5011020,5011021,5012021,5012020,6011020,6011021,6012021,6012020
1127,5012001,5012002,5013002,5013001,6012001,6012002,6013002,6013001
1128,5012002,5012003,5013003,5013002,6012002,6012003,6013003,6013002
1129,5012003,5012004,5013004,5013003,6012003,6012004,6013004,6013003
1130,5012004,5012005,5013005,5013004,6012004,6012005,6013005,6013004
1131,5012017,5012018,5013018,5013017,6012017,6012018,6013018,6013017
1132,5012018,5012019,5013019,5013018,6012018,6012019,6013019,6013018
1133,5012019,5012020,5013020,5013019,6012019,6012020,6013020,6013019
1134,5012020,5012021,5013021,5013020,6012020,6012021,6013021,6013020
1135,5013001,5013002,5014002,5014001,6013001,6013002,6014002,6014001
1136,5013002,5013003,5014003,5014002,6013002,6013003,6014003,6014002
1137,5013003,5013004,5014004,5014003,6013003,6013004,6014004,6014003
1138,5013004,5013005,5014005,5014004,6013004,6013005,6014005,6014004
1139,5013017,5013018,5014018,5014017,6013017,6013018,6014018,6014017
1140,5013018,5013019,5014019,5014018,6013018,6013019,6014019,6014018
1141,5013019,5013020,5014020,5014019,6013019,6013020,6014020,6014019
1142,5013020,5013021,5014021,5014020,6013020,6013021,6014021,6014020
1143,5014001,5014002,5015002,5015001,6014001,6014002,6015002,6015001
1144,5014002,5014003,5015003,5015002,6014002,6014003,6015003,6015002
1145,5014003,5014004,5015004,5015003,6014003,6014004,6015004,6015003
1146,5014004,5014005,5015005,5015004,6014004,6014005,6015005,6015004
1147,5014005,5014006,5015006,5015005,6014005,6014006,6015006,6015005
1148,5014016,5014017,5015017,5015016,6014016,6014017,6015017,6015016
1149,5014017,5014018,5015018,5015017,6014017,6014018,6015018,6015017
1150,5014018,5014019,5015019,5015018,6014018,6014019,6015019,6015018
1151,5014019,5014020,5015020,5015019,6014019,6014020,6015020,6015019
1152,5014020,5014021,5015021,5015020,6014020,6014021,6015021,6015020
1153,5015001,5015002,5016002,5016001,6015001,6015002,6016002,6016001
1154,5015002,5015003,5016003,5016002,6015002,6015003,6016003,6016002
1155,5015003,5015004,5016004,5016003,6015003,6015004,6016004,6016003
1156,5015004,5015005,5016005,5016004,6015004,6015005,6016005,6016004
1157,5015005,5015006,5016006,5016005,6015005,6015006,6016006,6016005
1158,5015006,5015007,5016007,5016006,6015006,6015007,6016007,6016006
1159,5015015,5015016,5016016,5016015,6015015,6015016,6016016,6016015
1160,5015016,5015017,5016017,5016016,6015016,6015017,6016017,6016016
1161,5015017,5015018,5016018,5016017,6015017,6015018,6016018,6016017
1162,5015018,5015019,5016019,5016018,6015018,6015019,6016019,6016018
1163,5015019,5015020,5016020,5016019,6015019,6015020,6016020,6016019
1164,5015020,5015021,5016021,5016020,6015020,6015021,6016021,6016020
1165,5016001,5016002,5017002,5017001,6016001,6016002,6017002,6017001
1166,5016002,5016003,5017003,5017002,6016002,6016003,6017003,6017002
1167,5016003,5016004,5017004,5017003,6016003,6016004,6017004,6017003
1168,5016004,5016005,5017005,5017004,6016004,6016005,6017005,6017004
1169,5016005,5016006,5017006,5017005,6016005,6016006,6017006,6017005
1170,5016006,5016007,5017007,5017006,6016006,6016007,6017007,6017006
1171,5016007,5016008,5017008,5017007,6016007,6016008,6017008,6017007
1172,5016008,5016009,5017009,5017008,6016008,6016009,6017009,6017008
1173,5016013,5016014,5017014,5017013,6016013,6016014,6017014,6017013
1174,5016014,5016015,5017015,5017014,6016014,6016015,6017015,6017014
1175,5016015,5016016,5017016,5017015,6016015,6016016,6017016,6017015
1176,5016016,5016017,5017017,5017016,6016016,6016017,6017017,6017016
1177,5016017,5016018,5017018,5017017,6016017,6016018,6017018,6017017
1178,5016018,5016019,5017019,5017018,6016018,6016019,6017019,6017018
1179,5016019,5016020,5017020,5017019,6016019,6016020,6017020,6017019
1180,5016020,5016021,5017021,5017020,6016020,6016021,6017021,6017020
1181,5017001,5017002,5018002,5018001,6017001,6017002,6018002,6018001
1182,5017002,5017003,5018003,5018002,6017002,6017003,6018003,6018002
1183,5017003,5017004,5018004,5018003,6017003,6017004,6018004,6018003
1184,5017004,5017005,5018005,5018004,6017004,6017005,6018005,6018004
1185,5017005,5017006,5018006,5018005,6017005,6017006,6018006,6018005
1186,5017006,5017007,5018007,5018006,6017006,6017007,6018007,6018006
1187,5017007,5017008,5018008,5018007,6017007,6017008,6018008,6018007
1188,5017008,5017009,5018009,5018008,6017008,6017009,6018009,6018008
1189,5017009,5017010,5018010,5018009,6017009,6017010,6018010,6018009
1190,5017010,5017011,5018011,5018010,6017010,6017011,6018011,6018010
1191,5017011,5017012,5018012,5018011,6017011,6017012,6018012,6018011
1192,5017012,5017013,5018013,5018012,6017012,6017013,6018013,6018012
1193,5017013,5017014,5018014,5018013,6017013,6017014,6018014,6018013
1194,5017014,5017015,5018015,5018014,6017014,6017015,6018015,6018014
1195,5017015,5017016,5018016,5018015,6017015,6017016,6018016,6018015
1196,5017016,5017017,5018017,5018016,6017016,6017017,6018017,6018016
1197,5017017,5017018,5018018,5018017,6017017,6017018,6018018,6018017
1198,5017018,5017019,5018019,5018018,6017018,6017019,6018019,6018018
1199,5017019,5017020,5018020,5018019,6017019,6017020,6018020,6018019
1200,5017020,5017021,5018021,5018020,6017020,6017021,6018021,6018020
1201,5018001,5018002,5019002,5019001,6018001,6018002,6019002,6019001
1202,5018002,5018003,5019003,5019002,6018002,6018003,6019003,6019002
1203,5018003,5018004,5019004,5019003,6018003,6018004,6019004,6019003
1204,5018004,5018005,5019005,5019004,6018004,6018005,6019005,6019004
1205,5018005,5018006,5019006,5019005,6018005,6018006,6019006,6019005
1206,5018006,5018007,5019007,5019006,6018006,6018007,6019007,6019006
1207,5018007,5018008,5019008,5019007,6018007,6018008,6019008,6019007
1208,5018008,5018009,5019009,5019008,6018008,6018009,6019009,6019008
1209,5018009,5018010,5019010,5019009,6018009,6018010,6019010,6019009
1210,5018010,5018011,5019011,5019010,6018010,6018011,6019011,6019010
1211,5018011,5018012,5019012,5019011,6018011,6018012,6019012,6019011
1212,5018012,5018013,5019013,5019012,6018012,6018013,6019013,6019012
1213,5018013,5018014,5019014,5019013,6018013,6018014,6019014,6019013
1214,5018014,5018015,5019015,5019014,6018014,6018015,6019015,6019014
1215,5018015,5018016,5019016,5019015,6018015,6018016,6019016,6019015
1216,5018016,5018017,5019017,5019016,6018016,6018017,6019017,6019016
1217,5018017,5018018,5019018,5019017,6018017,6018018,6019018,6019017
1218,5018018,5018019,5019019,5019018,6018018,6018019,6019019,6019018
1219,5018019,5018020,5019020,5019019,6018019,6018020,6019020,6019019
1220,5018020,5018021,5019021,5019020,6018020,6018021,6019021,6019020
1221,5019001,5019002,5020002,5020001,6019001,6019002,6020002,6020001
1222,5019002,5019003,5020003,5020002,6019002,6019003,6020003,6020002
1223,5019003,5019004,5020004,5020003,6019003,6019004,6020004,6020003
1224,5019004,5019005,5020005,5020004,6019004,6019005,6020005,6020004
1225,5019005,5019006,5020006,5020005,6019005,6019006,6020006,6020005
1226,5019006,5019007,5020007,5020006,6019006,6019007,6020007,6020006
1227,5019007,5019008,5020008,5020007,6019007,6019008,6020008,6020007
1228,5019008,5019009,5020009,5020008,6019008,6019009,6020009,6020008
1229,5019009,5019010,5020010,5020009,6019009,6019010,6020010,6020009
1230,5019010,5019011,5020011,5020010,6019010,6019011,6020011,6020010
1231,5019011,5019012,5020012,5020011,6019011,6019012,6020012,6020011
1232,5019012,5019013,5020013,5020012,6019012,6019013,6020013,6020012
1233,5019013,5019014,5020014,5020013,6019013,6019014,6020014,6020013
1234,5019014,5019015,5020015,5020014,6019014,6019015,6020015,6020014
1235,5019015,5019016,5020016,5020015,6019015,6019016,6020016,6020015
1236,5019016,5019017,5020017,5020016,6019016,6019017,6020017,6020016
1237,5019017,5019018,5020018,5020017,6019017,6019018,6020018,6020017
1238,5019018,5019019,5020019,5020018,6019018,6019019,6020019,6020018
1239,5019019,5019020,5020020,5020019,6019019,6019020,6020020,6020019
1240,5019020,5019021,5020021,5020020,6019020,6019021,6020021,6020020
1241,6000001,6000002,6001002,6001001,7000001,7000002,7001002,7001001
1242,6000002,6000003,6001003,6001002,7000002,7000003,7001003,7001002
1243,6000003,6000004,6001004,6001003,7000003,7000004,7001004,7001003
1244,6000004,6000005,6001005,6001004,7000004,7000005,7001005,7001004
1245,6000005,6000006,6001006,6001005,7000005,7000006,7001006,7001005
1246,6000006,6000007,6001007,6001006,7000006,7000007,7001007,7001006
1247,6000007,6000008,6001008,6001007,7000007,7000008,7001008,7001007
1248,6000008,6000009,6001009,6001008,7000008,7000009,7001009,7001008
1249,6000009,6000010,6001010,6001009,7000009,7000010,7001010,7001009
1250,6000010,6000011,6001011,6001010,7000010,7000011,7001011,7001010
1251,6000011,6000012,6001012,6001011,7000011,7000012,7001012,7001011
1252,6000012,6000013,6001013,6001012,7000012,7000013,7001013,7001012
1253,6000013,6000014,6001014,6001013,7000013,7000014,7001014,7001013
1254,6000014,6000015,6001015,6001014,7000014,7000015,7001015,7001014
1255,6000015,6000016,6001016,6001015,7000015,7000016,7001016,7001015
1256,6000016,6000017,6001017,6001016,7000016,7000017,7001017,7001016
1257,6000017,6000018,6001018,6001017,7000017,7000018,7001018,7001017
1258,6000018,6000019,6001019,6001018,7000018,7000019,7001019,7001018
1259,6000019,6000020,6001020,6001019,7000019,7000020,7001020,7001019
1260,6000020,6000021,6001021,6001020,7000020,7000021,7001021,7001020
1261,6001001,6001002,6002002,6002001,7001001,7001002,7002002,7002001
1262,6001002,6001003,6002003,6002002,7001002,7001003,7002003,7002002
1263,6001003,6001004,6002004,6002003,7001003,7001004,7002004,7002003
1264,6001004,6001005,6002005,6002004,7001004,7001005,7002005,7002004
1265,6001005,6001006,6002006,6002005,7001005,7001006,7002006,7002005
1266,6001006,6001007,6002007,6002006,7001006,7001007,7002007,7002006
1267,6001007,6001008,6002008,6002007,7001007,7001008,7002008,7002007
1268,6001008,6001009,6002009,6002008,7001008,7001009,7002009,7002008
1269,6001009,6001010,6002010,6002009,7001009,7001010,7002010,7002009
1270,6001010,6001011,6002011,6002010,7001010,7001011,7002011,7002010
1271,6001011,6001012,6002012,6002011,7001011,7001012,7002012,7002011
1272,6001012,6001013,6002013,6002012,7001012,7001013,7002013,7002012
1273,6001013,6001014,6002014,6002013,7001013,7001014,7002014,7002013
1274,6001014,6001015,6002015,6002014,7001014,7001015,7002015,7002014
1275,6001015,6001016,6002016,6002015,7001015,7001016,7002016,7002015
1276,6001016,6001017,6002017,6002016,7001016,7001017,7002017,7002016
1277,6001017,6001018,6002018,6002017,7001017,7001018,7002018,7002017
1278,6001018,6001019,6002019,6002018,7001018,7001019,7002019,7002018
1279,6001019,6001020,6002020,6002019,7001019,7001020,7002020,7002019
1280,6001020,6001021,6002021,6002020,7001020,7001021,7002021,7002020
1281,6002001,6002002,6003002,6003001,7002001,7002002,7003002,7003001
1282,6002002,6002003,6003003,6003002,7002002,7002003,7003003,7003002
1283,6002003,6002004,6003004,6003003,7002003,7002004,7003004,7003003
1284,6002004,6002005,6003005,6003004,7002004,7002005,7003005,7003004
1285,6002005,6002006,6003006,6003005,7002005,7002006,7003006,7003005
1286,6002006,6002007,6003007,6003006,7002006,7002007,7003007,7003006
1287,6002007,6002008,6003008,6003007,7002007,7002008,7003008,7003007
1288,6002008,6002009,6003009,6003008,7002008,7002009,7003009,7003008
1289,6002009,6002010,6003010,6003009,7002009,7002010,7003010,7003009
1290,6002010,6002011,6003011,6003010,7002010,7002011,7003011,7003010
1291,6002011,6002012,6003012,6003011,7002011,7002012,7003012,7003011
1292,6002012,6002013,6003013,6003012,7002012,7002013,7003013,7003012
1293,6002013,6002014,6003014,6003013,7002013,7002014,7003014,7003013
1294,6002014,6002015,6003015,6003014,7002014,7002015,7003015,7003014
1295,6002015,6002016,6003016,6003015,7002015,7002016,7003016,7003015
1296,6002016,6002017,6003017,6003016,7002016,7002017,7003017,7003016
1297,6002017,6002018,6003018,6003017,7002017,7002018,7003018,7003017
1298,6002018,6002019,6003019,6003018,7002018,7002019,7003019,7003018
1299,6002019,6002020,6003020,6003019,7002019,7002020,7003020,7003019
1300,6002020,6002021,6003021,6003020,7002020,7002021,7003021,7003020
1301,6003001,6003002,6004002,6004001,7003001,7003002,7004002,7004001
1302,6003002,6003003,6004003,6004002,7003002,7003003,7004003,7004002
1303,6003003,6003004,6004004,6004003,7003003,7003004,7004004,7004003
1304,6003004,6003005,6004005,6004004,7003004,7003005,7004005,7004004
1305,6003005,6003006,6004006,6004005,7003005,7003006,7004006,7004005
1306,6003006,6003007,6004007,6004006,7003006,7003007,7004007,7004006
1307,6003007,6003008,6004008,6004007,7003007,7003008,7004008,7004007
1308,6003008,6003009,6004009,6004008,7003008,7003009,7004009,7004008
1309,6003009,6003010,6004010,6004009,7003009,7003010,7004010,7004009
1310,6003010,6003011,6004011,6004010,7003010,7003011,7004011,7004010
1311,6003011,6003012,6004012,6004011,7003011,7003012,7004012,7004011
1312,6003012,6003013,6004013,6004012,7003012,7003013,7004013,7004012
1313,6003013,6003014,6004014,6004013,7003013,7003014,7004014,7004013
1314,6003014,6003015,6004015,6004014,7003014,7003015,7004015,7004014
1315,6003015,6003016,6004016,6004015,7003015,7003016,7004016,7004015
1316,6003016,6003017,6004017,6004016,7003016,7003017,7004017,7004016
1317,6003017,6003018,6004018,6004017,7003017,7003018,7004018,7004017
1318,6003018,6003019,6004019,6004018,7003018,7003019,7004019,7004018
1319,6003019,6003020,6004020,6004019,7003019,7003020,7004020,7004019
1320,6003020,6003021,6004021,6004020,7003020,7003021,7004021,7004020
1321,6004001,6004002,6005002,6005001,7004001,7004002,7005002,7005001
1322,6004002,6004003,6005003,6005002,7004002,7004003,7005003,7005002
1323,6004003,6004004,6005004,6005003,7004003,7004004,7005004,7005003
1324,6004004,6004005,6005005,6005004,7004004,7004005,7005005,7005004
1325,6004005,6004006,6005006,6005005,7004005,7004006,7005006,7005005
1326,6004006,6004007,6005007,6005006,7004006,7004007,7005007,7005006
1327,6004007,6004008,6005008,6005007,7004007,7004008,7005008,7005007
1328,6004008,6004009,6005009,6005008,7004008,7004009,7005009,7005008
1329,6004009,6004010,6005010,6005009,7004009,7004010,7005010,7005009
1330,6004010,6004011,6005011,6005010,7004010,7004011,7005011,7005010
1331,6004011,6004012,6005012,6005011,7004011,7004012,7005012,7005011
1332,6004012,6004013,6005013,6005012,7004012,7004013,7005013,7005012
1333,6004013,6004014,6005014,6005013,7004013,7004014,7005014,7005013
1334,6004014,6004015,6005015,6005014,7004014,7004015,7005015,7005014
1335,6004015,6004016,6005016,6005015,7004015,7004016,7005016,7005015
1336,6004016,6004017,6005017,6005016,7004016,7004017,7005017,7005016
1337,6004017,6004018,6005018,6005017,7004017,7004018,7005018,7005017
1338,6004018,6004019,6005019,6005018,7004018,7004019,7005019,7005018
1339,6004019,6004020,6005020,6005019,7004019,7004020,7005020,7005019
1340,6004020,6004021,6005021,6005020,7004020,7004021,7005021,7005020
1341,6005001,6005002,6006002,6006001,7005001,7005002,7006002,7006001
1342,6005002,6005003,6006003,6006002,7005002,7005003,7006003,7006002
1343,6005003,6005004,6006004,6006003,7005003,7005004,7006004,7006003
1344,6005004,6005005,6006005,6006004,7005004,7005005,7006005,7006004
1345,6005005,6005006,6006006,6006005,7005005,7005006,7006006,7006005
1346,6005006,6005007,6006007,6006006,7005006,7005007,7006007,7006006
1347,6005007,6005008,6006008,6006007,7005007,7005008,7006008,7006007
1348,6005008,6005009,6006009,6006008,7005008,7005009,7006009,7006008
1349,6005009,6005010,6006010,6006009,7005009,7005010,7006010,7006009
1350,6005010,6005011,6006011,6006010,7005010,7005011,7006011,7006010
1351,6005011,6005012,6006012,6006011,7005011,7005012,7006012,7006011
1352,6005012,6005013,6006013,6006012,7005012,7005013,7006013,7006012
1353,6005013,6005014,6006014,6006013,7005013,7005014,7006014,7006013
1354,6005014,6005015,6006015,6006014,7005014,7005015,7006015,7006014
1355,6005015,6005016,6006016,6006015,7005015,7005016,7006016,7006015
1356,6005016,6005017,6006017,6006016,7005016,7005017,7006017,7006016
1357,6005017,6005018,6006018,6006017,7005017,7005018,7006018,7006017
1358,6005018,6005019,6006019,6006018,7005018,7005019,7006019,7006018
1359,6005019,6005020,6006020,6006019,7005019,7005020,7006020,7006019
1360,6005020,6005021,6006021,6006020,7005020,7005021,7006021,7006020
1361,6006001,6006002,6007002,6007001,7006001,7006002,7007002,7007001
1362,6006002,6006003,6007003,6007002,7006002,7006003,7007003,7007002
1363,6006003,6006004,6007004,6007003,7006003,7006004,7007004,7007003
1364,6006004,6006005,6007005,6007004,7006004,7006005,7007005,7007004
1365,6006005,6006006,6007006,6007005,7006005,7006006,7007006,7007005
1366,6006006,6006007,6007007,6007006,7006006,7006007,7007007,7007006
1367,6006007,6006008,6007008,6007007,7006007,7006008,7007008,7007007
1368,6006008,6006009,6007009,6007008,7006008,7006009,7007009,7007008
1369,6006009,6006010,6007010,6007009,7006009,7006010,7007010,7007009
1370,6006010,6006011,6007011,6007010,7006010,7006011,7007011,7007010
1371,6006011,6006012,6007012,6007011,7006011,7006012,7007012,7007011
1372,6006012,6006013,6007013,6007012,7006012,7006013,7007013,7007012
1373,6006013,6006014,6007014,6007013,7006013,7006014,7007014,7007013
1374,6006014,6006015,6007015,6007014,7006014,7006015,7007015,7007014
1375,6006015,6006016,6007016,6007015,7006015,7006016,7007016,7007015
1376,6006016,6006017,6007017,6007016,7006016,7006017,7007017,7007016
1377,6006017,6006018,6007018,6007017,7006017,7006018,7007018,7007017
1378,6006018,6006019,6007019,6007018,7006018,7006019,7007019,7007018
1379,6006019,6006020,6007020,6007019,7006019,7006020,7007020,7007019
1380,6006020,6006021,6007021,6007020,7006020,7006021,7007021,7007020
1381,6007001,6007002,6008002,6008001,7007001,7007002,7008002,7008001
1382,6007002,6007003,6008003,6008002,7007002,7007003,7008003,7008002
1383,6007003,6007004,6008004,6008003,7007003,7007004,7008004,7008003
1384,6007004,6007005,6008005,6008004,7007004,7007005,7008005,7008004
1385,6007005,6007006,6008006,6008005,7007005,7007006,7008006,7008005
1386,6007006,6007007,6008007,6008006,7007006,7007007,7008007,7008006
1387,6007007,6007008,6008008,6008007,7007007,7007008,7008008,7008007
1388,6007008,6007009,6008009,6008008,7007008,7007009,7008009,7008008
1389,6007009,6007010,6008010,6008009,7007009,7007010,7008010,7008009
1390,6007010,6007011,6008011,6008010,7007010,7007011,7008011,7008010
1391,6007011,6007012,6008012,6008011,7007011,7007012,7008012,7008011
1392,6007012,6007013,6008013,6008012,7007012,7007013,7008013,7008012
1393,6007013,6007014,6008014,6008013,7007013,7007014,7008014,7008013
1394,6007014,6007015,6008015,6008014,7007014,7007015,7008015,7008014
1395,6007015,6007016,6008016,6008015,7007015,7007016,7008016,7008015
1396,6007016,6007017,6008017,6008016,7007016,7007017,7008017,7008016
1397,6007017,6007018,6008018,6008017,7007017,7007018,7008018,7008017
1398,6007018,6007019,6008019,6008018,7007018,7007019,7008019,7008018
1399,6007019,6007020,6008020,6008019,7007019,7007020,7008020,7008019
1400,6007020,6007021,6008021,6008020,7007020,7007021,7008021,7008020
1401,6008001,6008002,6009002,6009001,7008001,7008002,7009002,7009001
1402,6008002,6008003,6009003,6009002,7008002,7008003,7009003,7009002
1403,6008003,6008004,6009004,6009003,7008003,7008004,7009004,7009003
1404,6008004,6008005,6009005,6009004,7008004,7008005,7009005,7009004
1405,6008005,6008006,6009006,6009005,7008005,7008006,7009006,7009005
1406,6008006,6008007,6009007,6009006,7008006,7008007,7009007,7009006
1407,6008007,6008008,6009008,6009007,7008007,7008008,7009008,7009007
1408,6008008,6008009,6009009,6009008,7008008,7008009,7009009,7009008
1409,6008009,6008010,6009010,6009009,7008009,7008010,7009010,7009009
1410,6008010,6008011,6009011,6009010,7008010,7008011,7009011,7009010
1411,6008011,6008012,6009012,6009011,7008011,7008012,7009012,7009011
1412,6008012,6008013,6009013,6009012,7008012,7008013,7009013,7009012
1413,6008013,6008014,6009014,6009013,7008013,7008014,7009014,7009013
1414,6008014,6008015,6009015,6009014,7008014,7008015,7009015,7009014
1415,6008015,6008016,6009016,6009015,7008015,7008016,7009016,7009015
1416,6008016,6008017,6009017,6009016,7008016,7008017,7009017,7009016
1417,6008017,6008018,6009018,6009017,7008017,7008018,7009018,7009017
1418,6008018,6008019,6009019,6009018,7008018,7008019,7009019,7009018
1419,6008019,6008020,6009020,6009019,7008019,7008020,7009020,7009019
1420,6008020,6008021,6009021,6009020,7008020,7008021,7009021,7009020
1421,6009001,6009002,6010002,6010001,7009001,7009002,7010002,7010001
1422,6009002,6009003,6010003,6010002,7009002,7009003,7010003,7010002
1423,6009003,6009004,6010004,6010003,7009003,7009004,7010004,7010003
1424,6009004,6009005,6010005,6010004,7009004,7009005,7010005,7010004
1425,6009005,6009006,6010006,6010005,7009005,7009006,7010006,7010005
1426,6009006,6009007,6010007,6010006,7009006,7009007,7010007,7010006
1427,6009007,6009008,6010008,6010007,7009007,7009008,7010008,7010007
1428,6009008,6009009,6010009,6010008,7009008,7009009,7010009,7010008
1429,6009009,6009010,6010010,6010009,7009009,7009010,7010010,7010009
1430,6009010,6009011,6010011,6010010,7009010,7009011,7010011,7010010
1431,6009011,6009012,6010012,6010011,7009011,7009012,7010012,7010011
1432,6009012,6009013,6010013,6010012,7009012,7009013,7010013,7010012
1433,6009013,6009014,6010014,6010013,7009013,7009014,7010014,7010013
1434,6009014,6009015,6010015,6010014,7009014,7009015,7010015,7010014
1435,6009015,6009016,6010016,6010015,7009015,7009016,7010016,7010015
1436,6009016,6009017,6010017,6010016,7009016,7009017,7010017,7010016
1437,6009017,6009018,6010018,6010017,7009017,7009018,7010018,7010017
1438,6009018,6009019,6010019,6010018,7009018,7009019,7010019,7010018
1439,6009019,6009020,6010020,6010019,7009019,7009020,7010020,7010019
1440,6009020,6009021,6010021,6010020,7009020,7009021,7010021,7010020
1441,6010001,6010002,6011002,6011001,7010001,7010002,7011002,7011001
1442,6010002,6010003,6011003,6011002,7010002,7010003,7011003,7011002
1443,6010003,6010004,6011004,6011003,7010003,7010004,7011004,7011003
1444,6010004,6010005,6011005,6011004,7010004,7010005,7011005,7011004
1445,6010005,6010006,6011006,6011005,7010005,7010006,7011006,7011005
1446,6010006,6010007,6011007,6011006,7010006,7010007,7011007,7011006
1447,6010007,6010008,6011008,6011007,7010007,7010008,7011008,7011007
1448,6010008,6010009,6011009,6011008,7010008,7010009,7011009,7011008
1449,6010009,6010010,6011010,6011009,7010009,7010010,7011010,7011009
1450,6010010,6010011,6011011,6011010,7010010,7010011,7011011,7011010
1451,6010011,6010012,6011012,6011011,7010011,7010012,7011012,7011011
1452,6010012,6010013,6011013,6011012,7010012,7010013,7011013,7011012
1453,6010013,6010014,6011014,6011013,7010013,7010014,7011014,7011013
1454,6010014,6010015,6011015,6011014,7010014,7010015,7011015,7011014
1455,6010015,6010016,6011016,6011015,7010015,7010016,7011016,7011015
1456,6010016,6010017,6011017,6011016,7010016,7010017,7011017,7011016
1457,6010017,6010018,6011018,6011017,7010017,7010018,7011018,7011017
1458,6010018,6010019,6011019,6011018,7010018,7010019,7011019,7011018
1459,6010019,6010020,6011020,6011019,7010019,7010020,7011020,7011019
1460,6010020,6010021,6011021,6011020,7010020,7010021,7011021,7011020
1461,6011001,6011002,6012002,6012001,7011001,7011002,7012002,7012001
1462,6011002,6011003,6012003,6012002,7011002,7011003,7012003,7012002
1463,6011003,6011004,6012004,6012003,7011003,7011004,7012004,7012003
1464,6011004,6011005,6012005,6012004,7011004,7011005,7012005,7012004
1465,6011005,6011006,6012006,6012005,7011005,7011006,7012006,7012005
1466,6011006,6011007,6012007,6012006,7011006,7011007,7012007,7012006
1467,6011007,6011008,6012008,6012007,7011007,7011008,7012008,7012007
1468,6011008,6011009,6012009,6012008,7011008,7011009,7012009,7012008
1469,6011009,6011010,6012010,6012009,7011009,7011010,7012010,7012009
1470,6011010,6011011,6012011,6012010,7011010,7011011,7012011,7012010
1471,6011011,6011012,6012012,6012011,7011011,7011012,7012012,7012011
1472,6011012,6011013,6012013,6012012,7011012,7011013,7012013,7012012
1473,6011013,6011014,6012014,6012013,7011013,7011014,7012014,7012013
1474,6011014,6011015,6012015,6012014,7011014,7011015,7012015,7012014
1475,6011015,6011016,6012016,6012015,7011015,7011016,7012016,7012015
1476,6011016,6011017,6012017,6012016,7011016,7011017,7012017,7012016
1477,6011017,6011018,6012018,6012017,7011017,7011018,7012018,7012017
1478,6011018,6011019,6012019,6012018,7011018,7011019,7012019,7012018
1479,6011019,6011020,6012020,6012019,7011019,7011020,7012020,7012019
1480,6011020,6011021,6012021,6012020,7011020,7011021,7012021,7012020
1481,6012001,6012002,6013002,6013001,7012001,7012002,7013002,7013001
1482,6012002,6012003,6013003,6013002,7012002,7012003,7013003,7013002
1483,6012003,6012004,6013004,6013003,7012003,7012004,7013004,7013003
1484,6012004,6012005,6013005,6013004,7012004,7012005,7013005,7013004
1485,6012005,6012006,6013006,6013005,7012005,7012006,7013006,7013005
1486,6012006,6012007,6013007,6013006,7012006,7012007,7013007,7013006
1487,6012007,6012008,6013008,6013007,7012007,7012008,7013008,7013007
1488,6012008,6012009,6013009,6013008,7012008,7012009,7013009,7013008
1489,6012009,6012010,6013010,6013009,7012009,7012010,7013010,7013009
1490,6012010,6012011,6013011,6013010,7012010,7012011,7013011,7013010
1491,6012011,6012012,6013012,6013011,7012011,7012012,7013012,7013011
1492,6012012,6012013,6013013,6013012,7012012,7012013,7013013,7013012
1493,6012013,6012014,6013014,6013013,7012013,7012014,7013014,7013013
1494,6012014,6012015,6013015,6013014,7012014,7012015,7013015,7013014
1495,6012015,6012016,6013016,6013015,7012015,7012016,7013016,7013015
1496,6012016,6012017,6013017,6013016,7012016,7012017,7013017,7013016
1497,6012017,6012018,6013018,6013017,7012017,7012018,7013018,7013017
1498,6012018,6012019,6013019,6013018,7012018,7012019,7013019,7013018
1499,6012019,6012020,6013020,6013019,7012019,7012020,7013020,7013019
1500,6012020,6012021,6013021,6013020,7012020,7012021,7013021,7013020
1501,6013001,6013002,6014002,6014001,7013001,7013002,7014002,7014001
1502,6013002,6013003,6014003,6014002,7013002,7013003,7014003,7014002
1503,6013003,6013004,6014004,6014003,7013003,7013004,7014004,7014003
1504,6013004,6013005,6014005,6014004,7013004,7013005,7014005,7014004
1505,6013005,6013006,6014006,6014005,7013005,7013006,7014006,7014005
1506,6013006,6013007,6014007,6014006,7013006,7013007,7014007,7014006
1507,6013007,6013008,6014008,6014007,7013007,7013008,7014008,7014007
1508,6013008,6013009,6014009,6014008,7013008,7013009,7014009,7014008
1509,6013009,6013010,6014010,6014009,7013009,7013010,7014010,7014009
1510,6013010,6013011,6014011,6014010,7013010,7013011,7014011,7014010
1511,6013011,6013012,6014012,6014011,7013011,7013012,7014012,7014011
1512,6013012,6013013,6014013,6014012,7013012,7013013,7014013,7014012
1513,6013013,6013014,6014014,6014013,7013013,7013014,7014014,7014013
1514,6013014,6013015,6014015,6014014,7013014,7013015,7014015,7014014
1515,6013015,6013016,6014016,6014015,7013015,7013016,7014016,7014015
1516,6013016,6013017,6014017,6014016,7013016,7013017,7014017,7014016
1517,6013017,6013018,6014018,6014017,7013017,7013018,7014018,7014017
1518,6013018,6013019,6014019,6014018,7013018,7013019,7014019,7014018
1519,6013019,6013020,6014020,6014019,7013019,7013020,7014020,7014019
1520,6013020,6013021,6014021,6014020,7013020,7013021,7014021,7014020
1521,6014001,6014002,6015002,6015001,7014001,7014002,7015002,7015001
1522,6014002,6014003,6015003,6015002,7014002,7014003,7015003,7015002
1523,6014003,6014004,6015004,6015003,7014003,7014004,7015004,7015003
1524,6014004,6014005,6015005,6015004,7014004,7014005,7015005,7015004
1525,6014005,6014006,6015006,6015005,7014005,7014006,7015006,7015005
1526,6014006,6014007,6015007,6015006,7014006,7014007,7015007,7015006
1527,6014007,6014008,6015008,6015007,7014007,7014008,7015008,7015007
1528,6014008,6014009,6015009,6015008,7014008,7014009,7015009,7015008
1529,6014009,6014010,6015010,6015009,7014009,7014010,7015010,7015009
1530,6014010,6014011,6015011,6015010,7014010,7014011,7015011,7015010
1531,6014011,6014012,6015012,6015011,7014011,7014012,7015012,7015011
1532,6014012,6014013,6015013,6015012,7014012,7014013,7015013,7015012
1533,6014013,6014014,6015014,6015013,7014013,7014014,7015014,7015013
1534,6014014,6014015,6015015,6015014,7014014,7014015,7015015,7015014
1535,6014015,6014016,6015016,6015015,7014015,7014016,7015016,7015015
1536,6014016,6014017,6015017,6015016,7014016,7014017,7015017,7015016
1537,6014017,6014018,6015018,6015017,7014017,7014018,7015018,7015017
1538,6014018,6014019,6015019,6015018,7014018,7014019,7015019,7015018
1539,6014019,6014020,6015020,6015019,7014019,7014020,7015020,7015019
1540,6014020,6014021,6015021,6015020,7014020,7014021,7015021,7015020
1541,6015001,6015002,6016002,6016001,7015001,7015002,7016002,7016001
1542,6015002,6015003,6016003,6016002,7015002,7015003,7016003,7016002
1543,6015003,6015004,6016004,6016003,7015003,7015004,7016004,7016003
1544,6015004,6015005,6016005,6016004,7015004,7015005,7016005,7016004
1545,6015005,6015006,6016006,6016005,7015005,7015006,7016006,7016005
1546,6015006,6015007,6016007,6016006,7015006,7015007,7016007,7016006
1547,6015007,6015008,6016008,6016007,7015007,7015008,7016008,7016007
1548,6015008,6015009,6016009,6016008,7015008,7015009,7016009,7016008
1549,6015009,6015010,6016010,6016009,7015009,7015010,7016010,7016009
1550,6015010,6015011,6016011,6016010,7015010,7015011,7016011,7016010
1551,6015011,6015012,6016012,6016011,7015011,7015012,7016012,7016011
1552,6015012,6015013,6016013,6016012,7015012,7015013,7016013,7016012
1553,6015013,6015014,6016014,6016013,7015013,7015014,7016014,7016013
1554,6015014,6015015,6016015,6016014,7015014,7015015,7016015,7016014
1555,6015015,6015016,6016016,6016015,7015015,7015016,7016016,7016015
1556,6015016,6015017,6016017,6016016,7015016,7015017,7016017,7016016
1557,6015017,6015018,6016018,6016017,7015017,7015018,7016018,7016017
1558,6015018,6015019,6016019,6016018,7015018,7015019,7016019,7016018
1559,6015019,6015020,6016020,6016019,7015019,7015020,7016020,7016019
1560,6015020,6015021,6016021,6016020,7015020,7015021,7016021,7016020
1561,6016001,6016002,6017002,6017001,7016001,7016002,7017002,7017001
1562,6016002,6016003,6017003,6017002,7016002,7016003,7017003,7017002
1563,6016003,6016004,6017004,6017003,7016003,7016004,7017004,7017003
1564,6016004,6016005,6017005,6017004,7016004,7016005,7017005,7017004
1565,6016005,6016006,6017006,6017005,7016005,7016006,7017006,7017005
1566,6016006,6016007,6017007,6017006,7016006,7016007,7017007,7017006
1567,6016007,6016008,6017008,6017007,7016007,7016008,7017008,7017007
1568,6016008,6016009,6017009,6017008,7016008,7016009,7017009,7017008
1569,6016009,6016010,6017010,6017009,7016009,7016010,7017010,7017009
1570,6016010,6016011,6017011,6017010,7016010,7016011,7017011,7017010
1571,6016011,6016012,6017012,6017011,7016011,7016012,7017012,7017011
1572,6016012,6016013,6017013,6017012,7016012,7016013,7017013,7017012
1573,6016013,6016014,6017014,6017013,7016013,7016014,7017014,7017013
1574,6016014,6016015,6017015,6017014,7016014,7016015,7017015,7017014
1575,6016015,6016016,6017016,6017015,7016015,7016016,7017016,7017015
1576,6016016,6016017,6017017,6017016,7016016,7016017,7017017,7017016
1577,6016017,6016018,6017018,6017017,7016017,7016018,7017018,7017017
1578,6016018,6016019,6017019,6017018,7016018,7016019,7017019,7017018
1579,6016019,6016020,6017020,6017019,7016019,7016020,7017020,7017019
1580,6016020,6016021,6017021,6017020,7016020,7016021,7017021,7017020
1581,6017001,6017002,6018002,6018001,7017001,7017002,7018002,7018001
1582,6017002,6017003,6018003,6018002,7017002,7017003,7018003,7018002
1583,6017003,6017004,6018004,6018003,7017003,7017004,7018004,7018003
1584,6017004,6017005,6018005,6018004,7017004,7017005,7018005,7018004
1585,6017005,6017006,6018006,6018005,7017005,7017006,7018006,7018005
1586,6017006,6017007,6018007,6018006,7017006,7017007,7018007,7018006
1587,6017007,6017008,6018008,6018007,7017007,7017008,7018008,7018007
1588,6017008,6017009,6018009,6018008,7017008,7017009,7018009,7018008
1589,6017009,6017010,6018010,6018009,7017009,7017010,7018010,7018009
1590,6017010,6017011,6018011,6018010,7017010,7017011,7018011,7018010
1591,6017011,6017012,6018012,6018011,7017011,7017012,7018012,7018011
1592,6017012,6017013,6018013,6018012,7017012,7017013,7018013,7018012
1593,6017013,6017014,6018014,6018013,7017013,7017014,7018014,7018013
1594,6017014,6017015,6018015,6018014,7017014,7017015,7018015,7018014
1595,6017015,6017016,6018016,6018015,7017015,7017016,7018016,7018015
1596,6017016,6017017,6018017,6018016,7017016,7017017,7018017,7018016
1597,6017017,6017018,6018018,6018017,7017017,7017018,7018018,7018017
1598,6017018,6017019,6018019,6018018,7017018,7017019,7018019,7018018
1599,6017019,6017020,6018020,6018019,7017019,7017020,7018020,7018019
1600,6017020,6017021,6018021,6018020,7017020,7017021,7018021,7018020
1601,6018001,6018002,6019002,6019001,7018001,7018002,7019002,7019001
1602,6018002,6018003,6019003,6019002,7018002,7018003,7019003,7019002
1603,6018003,6018004,6019004,6019003,7018003,7018004,7019004,7019003
1604,6018004,6018005,6019005,6019004,7018004,7018005,7019005,7019004
1605,6018005,6018006,6019006,6019005,7018005,7018006,7019006,7019005
1606,6018006,6018007,6019007,6019006,7018006,7018007,7019007,7019006
1607,6018007,6018008,6019008,6019007,7018007,7018008,7019008,7019007
1608,6018008,6018009,6019009,6019008,7018008,7018009,7019009,7019008
1609,6018009,6018010,6019010,6019009,7018009,7018010,7019010,7019009
1610,6018010,6018011,6019011,6019010,7018010,7018011,7019011,7019010
1611,6018011,6018012,6019012,6019011,7018011,7018012,7019012,7019011
1612,6018012,6018013,6019013,6019012,7018012,7018013,7019013,7019012
1613,6018013,6018014,6019014,6019013,7018013,7018014,7019014,7019013
1614,6018014,6018015,6019015,6019014,7018014,7018015,7019015,7019014
1615,6018015,6018016,6019016,6019015,7018015,7018016,7019016,7019015
1616,6018016,6018017,6019017,6019016,7018016,7018017,7019017,7019016
1617,6018017,6018018,6019018,6019017,7018017,7018018,7019018,7019017
1618,6018018,6018019,6019019,6019018,7018018,7018019,7019019,7019018
1619,6018019,6018020,6019020,6019019,7018019,7018020,7019020,7019019
1620,6018020,6018021,6019021,6019020,7018020,7018021,7019021,7019020
1621,6019001,6019002,6020002,6020001,7019001,7019002,7020002,7020001
1622,6019002,6019003,6020003,6020002,7019002,7019003,7020003,7020002
1623,6019003,6019004,6020004,6020003,7019003,7019004,7020004,7020003
1624,6019004,6019005,6020005,6020004,7019004,7019005,7020005,7020004
1625,6019005,6019006,6020006,6020005,7019005,7019006,7020006,7020005
1626,6019006,6019007,6020007,6020006,7019006,7019007,7020007,7020006
1627,6019007,6019008,6020008,6020007,7019007,7019008,7020008,7020007
1628,6019008,6019009,6020009,6020008,7019008,7019009,7020009,7020008
1629,6019009,6019010,6020010,6020009,7019009,7019010,7020010,7020009
1630,6019010,6019011,6020011,6020010,7019010,7019011,7020011,7020010
1631,6019011,6019012,6020012,6020011,7019011,7019012,7020012,7020011
1632,6019012,6019013,6020013,6020012,7019012,7019013,7020013,7020012
1633,6019013,6019014,6020014,6020013,7019013,7019014,7020014,7020013
1634,6019014,6019015,6020015,6020014,7019014,7019015,7020015,7020014
1635,6019015,6019016,6020016,6020015,7019015,7019016,7020016,7020015
1636,6019016,6019017,6020017,6020016,7019016,7019017,7020017,7020016
1637,6019017,6019018,6020018,6020017,7019017,7019018,7020018,7020017
1638,6019018,6019019,6020019,6020018,7019018,7019019,7020019,7020018
1639,6019019,6019020,6020020,6020019,7019019,7019020,7020020,7020019
1640,6019020,6019021,6020021,6020020,7019020,7019021,7020021,7020020
1641,8001009,8001010,8002010,8002009,9001009,9001010,9002010,9002009
1642,8001010,8001011,8002011,8002010,9001010,9001011,9002011,9002010
1643,8001011,8001012,8002012,8002011,9001011,9001012,9002012,9002011
1644,8001012,8001013,8002013,8002012,9001012,9001013,9002013,9002012
1645,8002007,8002008,8003008,8003007,9002007,9002008,9003008,9003007
1646,8002008,8002009,8003009,8003008,9002008,9002009,9003009,9003008
1647,8002009,8002010,8003010,8003009,9002009,9002010,9003010,9003009
1648,8002010,8002011,8003011,8003010,9002010,9002011,9003011,9003010
1649,8002011,8002012,8003012,8003011,9002011,9002012,9003012,9003011
1650,8002012,8002013,8003013,8003012,9002012,9002013,9003013,9003012
1651,8002013,8002014,8003014,8003013,9002013,9002014,9003014,9003013
1652,8002014,8002015,8003015,8003014,9002014,9002015,9003015,9003014
1653,8003005,8003006,8004006,8004005,9003005,9003006,9004006,9004005
1654,8003006,8003007,8004007,8004006,9003006,9003007,9004007,9004006
1655,8003007,8003008,8004008,8004007,9003007,9003008,9004008,9004007
1656,8003008,8003009,8004009,8004008,9003008,9003009,9004009,9004008
1657,8003009,8003010,8004010,8004009,9003009,9003010,9004010,9004009
1658,8003010,8003011,8004011,8004010,9003010,9003011,9004011,9004010
1659,8003011,8003012,8004012,8004011,9003011,9003012,9004012,9004011
1660,8003012,8003013,8004013,8004012,9003012,9003013,9004013,9004012
1661,8003013,8003014,8004014,8004013,9003013,9003014,9004014,9004013
1662,8003014,8003015,8004015,8004014,9003014,9003015,9004015,9004014
1663,8003015,8003016,8004016,8004015,9003015,9003016,9004016,9004015
1664,8003016,8003017,8004017,8004016,9003016,9003017,9004017,9004016
1665,8004004,8004005,8005005,8005004,9004004,9004005,9005005,9005004
1666,8004005,8004006,8005006,8005005,9004005,9004006,9005006,9005005
1667,8004006,8004007,8005007,8005006,9004006,9004007,9005007,9005006
1668,8004007,8004008,8005008,8005007,9004007,9004008,9005008,9005007
1669,8004008,8004009,8005009,8005008,9004008,9004009,9005009,9005008
1670,8004009,8004010,8005010,8005009,9004009,9004010,9005010,9005009
1671,8004010,8004011,8005011,8005010,9004010,9004011,9005011,9005010
1672,8004011,8004012,8005012,8005011,9004011,9004012,9005012,9005011
1673,8004012,8004013,8005013,8005012,9004012,9004013,9005013,9005012
1674,8004013,8004014,8005014,8005013,9004013,9004014,9005014,9005013
1675,8004014,8004015,8005015,8005014,9004014,9004015,9005015,9005014
1676,8004015,8004016,8005016,8005015,9004015,9004016,9005016,9005015
1677,8004016,8004017,8005017,8005016,9004016,9004017,9005017,9005016
1678,8004017,8004018,8005018,8005017,9004017,9004018,9005018,9005017
1679,8005004,8005005,8006005,8006004,9005004,9005005,9006005,9006004
1680,8005005,8005006,8006006,8006005,9005005,9005006,9006006,9006005
1681,8005006,8005007,8006007,8006006,9005006,9005007,9006007,9006006
1682,8005007,8005008,8006008,8006007,9005007,9005008,9006008,9006007
1683,8005008,8005009,8006009,8006008,9005008,9005009,9006009,9006008
1684,8005009,8005010,8006010,8006009,9005009,9005010,9006010,9006009
1685,8005010,8005011,8006011,8006010,9005010,9005011,9006011,9006010
1686,8005011,8005012,8006012,8006011,9005011,9005012,9006012,9006011
1687,8005012,8005013,8006013,8006012,9005012,9005013,9006013,9006012
1688,8005013,8005014,8006014,8006013,9005013,9005014,9006014,9006013
1689,8005014,8005015,8006015,8006014,9005014,9005015,9006015,9006014
1690,8005015,8005016,8006016,8006015,9005015,9005016,9006016,9006015
1691,8005016,8005017,8006017,8006016,9005016,9005017,9006017,9006016
1692,8005017,8005018,8006018,8006017,9005017,9005018,9006018,9006017
1693,8006003,8006004,8007004,8007003,9006003,9006004,9007004,9007003
1694,8006004,8006005,8007005,8007004,9006004,9006005,9007005,9007004
1695,8006005,8006006,8007006,8007005,9006005,9006006,9007006,9007005
1696,8006006,8006007,8007007,8007006,9006006,9006007,9007007,9007006
1697,8006007,8006008,8007008,8007007,9006007,9006008,9007008,9007007
1698,8006008,8006009,8007009,8007008,9006008,9006009,9007009,9007008
1699,8006009,8006010,8007010,8007009,9006009,9006010,9007010,9007009
1700,8006010,8006011,8007011,8007010,9006010,9006011,9007011,9007010
1701,8006011,8006012,8007012,8007011,9006011,9006012,9007012,9007011
1702,8006012,8006013,8007013,8007012,9006012,9006013,9007013,9007012
1703,8006013,8006014,8007014,8007013,9006013,9006014,9007014,9007013
1704,8006014,8006015,8007015,8007014,9006014,9006015,9007015,9007014
1705,8006015,8006016,8007016,8007015,9006015,9006016,9007016,9007015
1706,8006016,8006017,8007017,8007016,9006016,9006017,9007017,9007016
1707,8006017,8006018,8007018,8007017,9006017,9006018,9007018,9007017
1708,8006018,8006019,8007019,8007018,9006018,9006019,9007019,9007018
1709,8007003,8007004,8008004,8008003,9007003,9007004,9008004,9008003
1710,8007004,8007005,8008005,8008004,9007004,9007005,9008005,9008004
1711,8007005,8007006,8008006,8008005,9007005,9007006,9008006,9008005
1712,8007006,8007007,8008007,8008006,9007006,9007007,9008007,9008006
1713,8007007,8007008,8008008,8008007,9007007,9007008,9008008,9008007
1714,8007008,8007009,8008009,8008008,9007008,9007009,9008009,9008008
1715,8007013,8007014,8008014,8008013,9007013,9007014,9008014,9008013
1716,8007014,8007015,8008015,8008014,9007014,9007015,9008015,9008014
1717,8007015,8007016,8008016,8008015,9007015,9007016,9008016,9008015
1718,8007016,8007017,8008017,8008016,9007016,9007017,9008017,9008016
1719,8007017,8007018,8008018,8008017,9007017,9007018,9008018,9008017
1720,8007018,8007019,8008019,8008018,9007018,9007019,9008019,9008018
1721,8008002,8008003,8009003,8009002,9008002,9008003,9009003,9009002
1722,8008003,8008004,8009004,8009003,9008003,9008004,9009004,9009003
1723,8008004,8008005,8009005,8009004,9008004,9008005,9009005,9009004
1724,8008005,8008006,8009006,8009005,9008005,9008006,9009006,9009005
1725,8008006,8008007,8009007,8009006,9008006,9008007,9009007,9009006
1726,8008007,8008008,8009008,8009007,9008007,9008008,9009008,9009007
1727,8008014,8008015,8009015,8009014,9008014,9008015,9009015,9009014
1728,8008015,8008016,8009016,8009015,9008015,9008016,9009016,9009015
1729,8008016,8008017,8009017,8009016,9008016,9008017,9009017,9009016
1730,8008017,8008018,8009018,8009017,9008017,9008018,9009018,9009017
1731,8008018,8008019,8009019,8009018,9008018,9008019,9009019,9009018
1732,8008019,8008020,8009020,8009019,9008019,9008020,9009020,9009019
1733,8009002,8009003,8010003,8010002,9009002,9009003,9010003,9010002
1734,8009003,8009004,8010004,8010003,9009003,9009004,9010004,9010003
1735,8009004,8009005,8010005,8010004,9009004,9009005,9010005,9010004
1736,8009005,8009006,8010006,8010005,9009005,9009006,9010006,9010005
1737,8009006,8009007,8010007,8010006,9009006,9009007,9010007,9010006
1738,8009007,8009008,8010008,8010007,9009007,9009008,9010008,9010007
1739,8009014,8009015,8010015,8010014,9009014,9009015,9010015,9010014
1740,8009015,8009016,8010016,8010015,9009015,9009016,9010016,9010015
1741,8009016,8009017,8010017,8010016,9009016,9009017,9010017,9010016
1742,8009017,8009018,8010018,8010017,9009017,9009018,9010018,9010017
1743,8009018,8009019,8010019,8010018,9009018,9009019,9010019,9010018
1744,8009019,8009020,8010020,8010019,9009019,9009020,9010020,9010019
1745,8010002,8010003,8011003,8011002,9010002,9010003,9011003,9011002
1746,8010003,8010004,8011004,8011003,9010003,9010004,9011004,9011003
1747,8010004,8010005,8011005,8011004,9010004,9010005,9011005,9011004
1748,8010005,8010006,8011006,8011005,9010005,9010006,9011006,9011005
1749,8010006,8010007,8011007,8011006,9010006,9010007,9011007,9011006
1750,8010007,8010008,8011008,8011007,9010007,9010008,9011008,9011007
1751,8010014,8010015,8011015,8011014,9010014,9010015,9011015,9011014
1752,8010015,8010016,8011016,8011015,9010015,9010016,9011016,9011015
1753,8010016,8010017,8011017,8011016,9010016,9010017,9011017,9011016
1754,8010017,8010018,8011018,8011017,9010017,9010018,9011018,9011017
1755,8010018,8010019,8011019,8011018,9010018,9010019,9011019,9011018
1756,8010019,8010020,8011020,8011019,9010019,9010020,9011020,9011019
1757,8011002,8011003,8012003,8012002,9011002,9011003,9012003,9012002
1758,8011003,8011004,8012004,8012003,9011003,9011004,9012004,9012003
1759,8011004,8011005,8012005,8012004,9011004,9011005,9012005,9012004
1760,8011005,8011006,8012006,8012005,9011005,9011006,9012006,9012005
1761,8011006,8011007,8012007,8012006,9011006,9011007,9012007,9012006
1762,8011007,8011008,8012008,8012007,9011007,9011008,9012008,9012007
1763,8011014,8011015,8012015,8012014,9011014,9011015,9012015,9012014
1764,8011015,8011016,8012016,8012015,9011015,9011016,9012016,9012015
1765,8011016,8011017,8012017,8012016,9011016,9011017,9012017,9012016
1766,8011017,8011018,8012018,8012017,9011017,9011018,9012018,9012017
1767,8011018,8011019,8012019,8012018,9011018,9011019,9012019,9012018
1768,8011019,8011020,8012020,8012019,9011019,9011020,9012020,9012019
1769,8012003,8012004,8013004,8013003,9012003,9012004,9013004,9013003
1770,8012004,8012005,8013005,8013004,9012004,9012005,9013005,9013004
1771,8012005,8012006,8013006,8013005,9012005,9012006,9013006,9013005
1772,8012006,8012007,8013007,8013006,9012006,9012007,9013007,9013006
1773,8012007,8012008,8013008,8013007,9012007,9012008,9013008,9013007
1774,8012008,8012009,8013009,8013008,9012008,9012009,9013009,9013008
1775,8012013,8012014,8013014,8013013,9012013,9012014,9013014,9013013
1776,8012014,8012015,8013015,8013014,9012014,9012015,9013015,9013014
1777,8012015,8012016,8013016,8013015,9012015,9012016,9013016,9013015
1778,8012016,8012017,8013017,8013016,9012016,9012017,9013017,9013016
1779,8012017,8012018,8013018,8013017,9012017,9012018,9013018,9013017
1780,8012018,8012019,8013019,8013018,9012018,9012019,9013019,9013018
1781,8013003,8013004,8014004,8014003,9013003,9013004,9014004,9014003
1782,8013004,8013005,8014005,8014004,9013004,9013005,9014005,9014004
1783,8013005,8013006,8014006,8014005,9013005,9013006,9014006,9014005
1784,8013006,8013007,8014007,8014006,9013006,9013007,9014007,9014006
1785,8013007,8013008,8014008,8014007,9013007,9013008,9014008,9014007
1786,8013008,8013009,8014009,8014008,9013008,9013009,9014009,9014008
1787,8013009,8013010,8014010,8014009,9013009,9013010,9014010,9014009
1788,8013010,8013011,8014011,8014010,9013010,9013011,9014011,9014010
1789,8013011,8013012,8014012,8014011,9013011,9013012,9014012,9014011
1790,8013012,8013013,8014013,8014012,9013012,9013013,9014013,9014012
1791,8013013,8013014,8014014,8014013,9013013,9013014,9014014,9014013
1792,8013014,8013015,8014015,8014014,9013014,9013015,9014015,9014014
1793,8013015,8013016,8014016,8014015,9013015,9013016,9014016,9014015
1794,8013016,8013017,8014017,8014016,9013016,9013017,9014017,9014016
1795,8013017,8013018,8014018,8014017,9013017,9013018,9014018,9014017
1796,8013018,8013019,8014019,8014018,9013018,9013019,9014019,9014018
1797,8014004,8014005,8015005,8015004,9014004,9014005,9015005,9015004
1798,8014005,8014006,8015006,8015005,9014005,9014006,9015006,9015005
1799,8014006,8014007,8015007,8015006,9014006,9014007,9015007,9015006
1800,8014007,8014008,8015008,8015007,9014007,9014008,9015008,9015007
1801,8014008,8014009,8015009,8015008,9014008,9014009,9015009,9015008
1802,8014009,8014010,8015010,8015009,9014009,9014010,9015010,9015009
1803,8014010,8014011,8015011,8015010,9014010,9014011,9015011,9015010
1804,8014011,8014012,8015012,8015011,9014011,9014012,9015012,9015011
1805,8014012,8014013,8015013,8015012,9014012,9014013,9015013,9015012
1806,8014013,8014014,8015014,8015013,9014013,9014014,9015014,9015013
1807,8014014,8014015,8015015,8015014,9014014,9014015,9015015,9015014
1808,8014015,8014016,8015016,8015015,9014015,9014016,9015016,9015015
1809,8014016,8014017,8015017,8015016,9014016,9014017,9015017,9015016
1810,8014017,8014018,8015018,8015017,9014017,9014018,9015018,9015017
1811,8015004,8015005,8016005,8016004,9015004,9015005,9016005,9016004
1812,8015005,8015006,8016006,8016005,9015005,9015006,9016006,9016005
1813,8015006,8015007,8016007,8016006,9015006,9015007,9016007,9016006
1814,8015007,8015008,8016008,8016007,9015007,9015008,9016008,9016007
1815,8015008,8015009,8016009,8016008,9015008,9015009,9016009,9016008
1816,8015009,8015010,8016010,8016009,9015009,9015010,9016010,9016009
1817,8015010,8015011,8016011,8016010,9015010,9015011,9016011,9016010
1818,8015011,8015012,8016012,8016011,9015011,9015012,9016012,9016011
1819,8015012,8015013,8016013,8016012,9015012,9015013,9016013,9016012
1820,8015013,8015014,8016014,8016013,9015013,9015014,9016014,9016013
1821,8015014,8015015,8016015,8016014,9015014,9015015,9016015,9016014
1822,8015015,8015016,8016016,8016015,9015015,9015016,9016016,9016015
1823,8015016,8015017,8016017,8016016,9015016,9015017,9016017,9016016
1824,8015017,8015018,8016018,8016017,9015017,9015018,9016018,9016017
1825,8016005,8016006,8017006,8017005,9016005,9016006,9017006,9017005
1826,8016006,8016007,8017007,8017006,9016006,9016007,9017007,9017006
1827,8016007,8016008,8017008,8017007,9016007,9016008,9017008,9017007
1828,8016008,8016009,8017009,8017008,9016008,9016009,9017009,9017008
1829,8016009,8016010,8017010,8017009,9016009,9016010,9017010,9017009
1830,8016010,8016011,8017011,8017010,9016010,9016011,9017011,9017010
1831,8016011,8016012,8017012,8017011,9016011,9016012,9017012,9017011
1832,8016012,8016013,8017013,8017012,9016012,9016013,9017013,9017012
1833,8016013,8016014,8017014,8017013,9016013,9016014,9017014,9017013
1834,8016014,8016015,8017015,8017014,9016014,9016015,9017015,9017014
1835,8016015,8016016,8017016,8017015,9016015,9016016,9017016,9017015
1836,8016016,8016017,8017017,8017016,9016016,9016017,9017017,9017016
1837,8017007,8017008,8018008,8018007,9017007,9017008,9018008,9018007
1838,8017008,8017009,8018009,8018008,9017008,9017009,9018009,9018008
1839,8017009,8017010,8018010,8018009,9017009,9017010,9018010,9018009
1840,8017010,8017011,8018011,8018010,9017010,9017011,9018011,9018010
1841,8017011,8017012,8018012,8018011,9017011,9017012,9018012,9018011
1842,8017012,8017013,8018013,8018012,9017012,9017013,9018013,9018012
1843,8017013,8017014,8018014,8018013,9017013,9017014,9018014,9018013
1844,8017014,8017015,8018015,8018014,9017014,9017015,9018015,9018014
1845,8018009,8018010,8019010,8019009,9018009,9018010,9019010,9019009
1846,8018010,8018011,8019011,8019010,9018010,9018011,9019011,9019010
1847,8018011,8018012,8019012,8019011,9018011,9018012,9019012,9019011
1848,8018012,8018013,8019013,8019012,9018012,9018013,9019013,9019012
1849,9001009,9001010,9002010,9002009,10001009,10001010,10002010,10002009
1850,9001010,9001011,9002011,9002010,10001010,10001011,10002011,10002010
1851,9001011,9001012,9002012,9002011,10001011,10001012,10002012,10002011
1852,9001012,9001013,9002013,9002012,10001012,10001013,10002013,10002012
1853,9002007,9002008,9003008,9003007,10002007,10002008,10003008,10003007
1854,9002008,9002009,9003009,9003008,10002008,10002009,10003009,10003008
1855,9002009,9002010,9003010,9003009,10002009,10002010,10003010,10003009
1856,9002010,9002011,9003011,9003010,10002010,10002011,10003011,10003010
1857,9002011,9002012,9003012,9003011,10002011,10002012,10003012,10003011
1858,9002012,9002013,9003013,9003012,10002012,10002013,10003013,10003012
1859,9002013,9002014,9003014,9003013,10002013,10002014,10003014,10003013
1860,9002014,9002015,9003015,9003014,10002014,10002015,10003015,10003014
1861,9003005,9003006,9004006,9004005,10003005,10003006,10004006,10004005
1862,9003006,9003007,9004007,9004006,10003006,10003007,10004007,10004006
1863,9003007,9003008,9004008,9004007,10003007,10003008,10004008,10004007
1864,9003008,9003009,9004009,9004008,10003008,10003009,10004009,10004008
1865,9003009,9003010,9004010,9004009,10003009,10003010,10004010,10004009
1866,9003010,9003011,9004011,9004010,10003010,10003011,10004011,10004010
1867,9003011,9003012,9004012,9004011,10003011,10003012,10004012,10004011
1868,9003012,9003013,9004013,9004012,10003012,10003013,10004013,10004012
1869,9003013,9003014,9004014,9004013,10003013,10003014,10004014,10004013
1870,9003014,9003015,9004015,9004014,10003014,10003015,10004015,10004014
1871,9003015,9003016,9004016,9004015,10003015,10003016,10004016,10004015
1872,9003016,9003017,9004017,9004016,10003016,10003017,10004017,10004016
1873,9004004,9004005,9005005,9005004,10004004,10004005,10005005,10005004
1874,9004005,9004006,9005006,9005005,10004005,10004006,10005006,10005005
1875,9004006,9004007,9005007,9005006,10004006,10004007,10005007,10005006
1876,9004007,9004008,9005008,9005007,10004007,10004008,10005008,10005007
1877,9004008,9004009,9005009,9005008,10004008,10004009,10005009,10005008
1878,9004009,9004010,9005010,9005009,10004009,10004010,10005010,10005009
1879,9004010,9004011,9005011,9005010,10004010,10004011,10005011,10005010
1880,9004011,9004012,9005012,9005011,10004011,10004012,10005012,10005011
1881,9004012,9004013,9005013,9005012,10004012,10004013,10005013,10005012
1882,9004013,9004014,9005014,9005013,10004013,10004014,10005014,10005013
1883,9004014,9004015,9005015,9005014,10004014,10004015,10005015,10005014
1884,9004015,9004016,9005016,9005015,10004015,10004016,10005016,10005015
1885,9004016,9004017,9005017,9005016,10004016,10004017,10005017,10005016
1886,9004017,9004018,9005018,9005017,10004017,10004018,10005018,10005017
1887,9005004,9005005,9006005,9006004,10005004,10005005,10006005,10006004
1888,9005005,9005006,9006006,9006005,10005005,10005006,10006006,10006005
1889,9005006,9005007,9006007,9006006,10005006,10005007,10006007,10006006
1890,9005007,9005008,9006008,9006007,10005007,10005008,10006008,10006007
1891,9005008,9005009,9006009,9006008,10005008,10005009,10006009,10006008
1892,9005009,9005010,9006010,9006009,10005009,10005010,10006010,10006009
1893,9005010,9005011,9006011,9006010,10005010,10005011,10006011,10006010
1894,9005011,9005012,9006012,9006011,10005011,10005012,10006012,10006011
1895,9005012,9005013,9006013,9006012,10005012,10005013,10006013,10006012
1896,9005013,9005014,9006014,9006013,10005013,10005014,10006014,10006013
1897,9005014,9005015,9006015,9006014,10005014,10005015,10006015,10006014
1898,9005015,9005016,9006016,9006015,10005015,10005016,10006016,10006015
1899,9005016,9005017,9006017,9006016,10005016,10005017,10006017,10006016
1900,9005017,9005018,9006018,9006017,10005017,10005018,10006018,10006017
1901,9006003,9006004,9007004,9007003,10006003,10006004,10007004,10007003
1902,9006004,9006005,9007005,9007004,10006004,10006005,10007005,10007004
1903,9006005,9006006,9007006,9007005,10006005,10006006,10007006,10007005
1904,9006006,9006007,9007007,9007006,10006006,10006007,10007007,10007006
1905,9006007,9006008,9007008,9007007,10006007,10006008,10007008,10007007
1906,9006008,9006009,9007009,9007008,10006008,10006009,10007009,10007008
1907,9006009,9006010,9007010,9007009,10006009,10006010,10007010,10007009
1908,9006010,9006011,9007011,9007010,10006010,10006011,10007011,10007010
1909,9006011,9006012,9007012,9007011,10006011,10006012,10007012,10007011
1910,9006012,9006013,9007013,9007012,10006012,10006013,10007013,10007012
1911,9006013,9006014,9007014,9007013,10006013,10006014,10007014,10007013
1912,9006014,9006015,9007015,9007014,10006014,10006015,10007015,10007014
1913,9006015,9006016,9007016,9007015,10006015,10006016,10007016,10007015
1914,9006016,9006017,9007017,9007016,10006016,10006017,10007017,10007016
1915,9006017,9006018,9007018,9007017,10006017,10006018,10007018,10007017
1916,9006018,9006019,9007019,9007018,10006018,10006019,10007019,10007018
1917,9007003,9007004,9008004,9008003,10007003,10007004,10008004,10008003
1918,9007004,9007005,9008005,9008004,10007004,10007005,10008005,10008004
1919,9007005,9007006,9008006,9008005,10007005,10007006,10008006,10008005
1920,9007006,9007007,9008007,9008006,10007006,10007007,10008007,10008006
1921,9007007,9007008,9008008,9008007,10007007,10007008,10008008,10008007
1922,9007008,9007009,9008009,9008008,10007008,10007009,10008009,10008008
1923,9007013,9007014,9008014,9008013,10007013,10007014,10008014,10008013
1924,9007014,9007015,9008015,9008014,10007014,10007015,10008015,10008014
1925,9007015,9007016,9008016,9008015,10007015,10007016,10008016,10008015
1926,9007016,9007017,9008017,9008016,10007016,10007017,10008017,10008016
1927,9007017,9007018,9008018,9008017,10007017,10007018,10008018,10008017
1928,9007018,9007019,9008019,9008018,10007018,10007019,10008019,10008018
1929,9008002,9008003,9009003,9009002,10008002,10008003,10009003,10009002
1930,9008003,9008004,9009004,9009003,10008003,10008004,10009004,10009003
1931,9008004,9008005,9009005,9009004,10008004,10008005,10009005,10009004
1932,9008005,9008006,9009006,9009005,10008005,10008006,10009006,10009005
1933,9008006,9008007,9009007,9009006,10008006,10008007,10009007,10009006
1934,9008007,9008008,9009008,9009007,10008007,10008008,10009008,10009007
1935,9008014,9008015,9009015,9009014,10008014,10008015,10009015,10009014
1936,9008015,9008016,9009016,9009015,10008015,10008016,10009016,10009015
1937,9008016,9008017,9009017,9009016,10008016,10008017,10009017,10009016
1938,9008017,9008018,9009018,9009017,10008017,10008018,10009018,10009017
1939,9008018,9008019,9009019,9009018,10008018,10008019,10009019,10009018
1940,9008019,9008020,9009020,9009019,10008019,10008020,10009020,10009019
1941,9009002,9009003,9010003,9010002,10009002,10009003,10010003,10010002
1942,9009003,9009004,9010004,9010003,10009003,10009004,10010004,10010003
1943,9009004,9009005,9010005,9010004,10009004,10009005,10010005,10010004
1944,9009005,9009006,9010006,9010005,10009005,10009006,10010006,10010005
1945,9009006,9009007,9010007,9010006,10009006,10009007,10010007,10010006
1946,9009007,9009008,9010008,9010007,10009007,10009008,10010008,10010007
1947,9009014,9009015,9010015,9010014,10009014,10009015,10010015,10010014
1948,9009015,9009016,9010016,9010015,10009015,10009016,10010016,10010015
1949,9009016,9009017,9010017,9010016,10009016,10009017,10010017,10010016
1950,9009017,9009018,9010018,9010017,10009017,10009018,10010018,10010017
1951,9009018,9009019,9010019,9010018,10009018,10009019,10010019,10010018
1952,9009019,9009020,9010020,9010019,10009019,10009020,10010020,10010019
1953,9010002,9010003,9011003,9011002,10010002,10010003,10011003,10011002
1954,9010003,9010004,9011004,9011003,10010003,10010004,10011004,10011003
1955,9010004,9010005,9011005,9011004,10010004,10010005,10011005,10011004
1956,9010005,9010006,9011006,9011005,10010005,10010006,10011006,10011005
1957,9010006,9010007,9011007,9011006,10010006,10010007,10011007,10011006
1958,9010007,9010008,9011008,9011007,10010007,10010008,10011008,10011007
1959,9010014,9010015,9011015,9011014,10010014,10010015,10011015,10011014
1960,9010015,9010016,9011016,9011015,10010015,10010016,10011016,10011015
1961,9010016,9010017,9011017,9011016,10010016,10010017,10011017,10011016
1962,9010017,9010018,9011018,9011017,10010017,10010018,10011018,10011017
1963,9010018,9010019,9011019,9011018,10010018,10010019,10011019,10011018
1964,9010019,9010020,9011020,9011019,10010019,10010020,10011020,10011019
1965,9011002,9011003,9012003,9012002,10011002,10011003,10012003,10012002
1966,9011003,9011004,9012004,9012003,10011003,10011004,10012004,10012003
1967,9011004,9011005,9012005,9012004,10011004,10011005,10012005,10012004
1968,9011005,9011006,9012006,9012005,10011005,10011006,10012006,10012005
1969,9011006,9011007,9012007,9012006,10011006,10011007,10012007,10012006
1970,9011007,9011008,9012008,9012007,10011007,10011008,10012008,10012007
1971,9011014,9011015,9012015,9012014,10011014,10011015,10012015,10012014
1972,9011015,9011016,9012016,9012015,10011015,10011016,10012016,10012015
1973,9011016,9011017,9012017,9012016,10011016,10011017,10012017,10012016
1974,9011017,9011018,9012018,9012017,10011017,10011018,10012018,10012017
1975,9011018,9011019,9012019,9012018,10011018,10011019,10012019,10012018
1976,9011019,9011020,9012020,9012019,10011019,10011020,10012020,10012019
1977,9012003,9012004,9013004,9013003,10012003,10012004,10013004,10013003
1978,9012004,9012005,9013005,9013004,10012004,10012005,10013005,10013004
1979,9012005,9012006,9013006,9013005,10012005,10012006,10013006,10013005
1980,9012006,9012007,9013007,9013006,10012006,10012007,10013007,10013006
1981,9012007,9012008,9013008,9013007,10012007,10012008,10013008,10013007
1982,9012008,9012009,9013009,9013008,10012008,10012009,10013009,10013008
1983,9012013,9012014,9013014,9013013,10012013,10012014,10013014,10013013
1984,9012014,9012015,9013015,9013014,10012014,10012015,10013015,10013014
1985,9012015,9012016,9013016,9013015,10012015,10012016,10013016,10013015
1986,9012016,9012017,9013017,9013016,10012016,10012017,10013017,10013016
1987,9012017,9012018,9013018,9013017,10012017,10012018,10013018,10013017
1988,9012018,9012019,9013019,9013018,10012018,10012019,10013019,10013018
1989,9013003,9013004,9014004,9014003,10013003,10013004,10014004,10014003
1990,9013004,9013005,9014005,9014004,10013004,10013005,10014005,10014004
1991,9013005,9013006,9014006,9014005,10013005,10013006,10014006,10014005
1992,9013006,9013007,9014007,9014006,10013006,10013007,10014007,10014006
1993,9013007,9013008,9014008,9014007,10013007,10013008,10014008,10014007
1994,9013008,9013009,9014009,9014008,10013008,10013009,10014009,10014008
1995,9013009,9013010,9014010,9014009,10013009,10013010,10014010,10014009
1996,9013010,9013011,9014011,9014010,10013010,10013011,10014011,10014010
1997,9013011,9013012,9014012,9014011,10013011,10013012,10014012,10014011
1998,9013012,9013013,9014013,9014012,10013012,10013013,10014013,10014012
1999,9013013,9013014,9014014,9014013,10013013,10013014,10014014,10014013
2000,9013014,9013015,9014015,9014014,10013014,10013015,10014015,10014014
2001,9013015,9013016,9014016,9014015,10013015,10013016,10014016,10014015
2002,9013016,9013017,9014017,9014016,10013016,10013017,10014017,10014016
2003,9013017,9013018,9014018,9014017,10013017,10013018,10014018,10014017
2004,9013018,9013019,9014019,9014018,10013018,10013019,10014019,10014018
2005,9014004,9014005,9015005,9015004,10014004,10014005,10015005,10015004
2006,9014005,9014006,9015006,9015005,10014005,10014006,10015006,10015005
2007,9014006,9014007,9015007,9015006,10014006,10014007,10015007,10015006
2008,9014007,9014008,9015008,9015007,10014007,10014008,10015008,10015007
2009,9014008,9014009,9015009,9015008,10014008,10014009,10015009,10015008
2010,9014009,9014010,9015010,9015009,10014009,10014010,10015010,10015009
2011,9014010,9014011,9015011,9015010,10014010,10014011,10015011,10015010
2012,9014011,9014012,9015012,9015011,10014011,10014012,10015012,10015011
2013,9014012,9014013,9015013,9015012,10014012,10014013,10015013,10015012
2014,9014013,9014014,9015014,9015013,10014013,10014014,10015014,10015013
2015,9014014,9014015,9015015,9015014,10014014,10014015,10015015,10015014
2016,9014015,9014016,9015016,9015015,10014015,10014016,10015016,10015015
2017,9014016,9014017,9015017,9015016,10014016,10014017,10015017,10015016
2018,9014017,9014018,9015018,9015017,10014017,10014018,10015018,10015017
2019,9015004,9015005,9016005,9016004,10015004,10015005,10016005,10016004
2020,9015005,9015006,9016006,9016005,10015005,10015006,10016006,10016005
2021,9015006,9015007,9016007,9016006,10015006,10015007,10016007,10016006
2022,9015007,9015008,9016008,9016007,10015007,10015008,10016008,10016007
2023,9015008,9015009,9016009,9016008,10015008,10015009,10016009,10016008
2024,9015009,9015010,9016010,9016009,10015009,10015010,10016010,10016009
2025,9015010,9015011,9016011,9016010,10015010,10015011,10016011,10016010
2026,9015011,9015012,9016012,9016011,10015011,10015012,10016012,10016011
2027,9015012,9015013,9016013,9016012,10015012,10015013,10016013,10016012
2028,9015013,9015014,9016014,9016013,10015013,10015014,10016014,10016013
2029,9015014,9015015,9016015,9016014,10015014,10015015,10016015,10016014
2030,9015015,9015016,9016016,9016015,10015015,10015016,10016016,10016015
2031,9015016,9015017,9016017,9016016,10015016,10015017,10016017,10016016
2032,9015017,9015018,9016018,9016017,10015017,10015018,10016018,10016017
2033,9016005,9016006,9017006,9017005,10016005,10016006,10017006,10017005
2034,9016006,9016007,9017007,9017006,10016006,10016007,10017007,10017006
2035,9016007,9016008,9017008,9017007,10016007,10016008,10017008,10017007
2036,9016008,9016009,9017009,9017008,10016008,10016009,10017009,10017008
2037,9016009,9016010,9017010,9017009,10016009,10016010,10017010,10017009
2038,9016010,9016011,9017011,9017010,10016010,10016011,10017011,10017010
2039,9016011,9016012,9017012,9017011,10016011,10016012,10017012,10017011
2040,9016012,9016013,9017013,9017012,10016012,10016013,10017013,10017012
2041,9016013,9016014,9017014,9017013,10016013,10016014,10017014,10017013
2042,9016014,9016015,9017015,9017014,10016014,10016015,10017015,10017014
2043,9016015,9016016,9017016,9017015,10016015,10016016,10017016,10017015
2044,9016016,9016017,9017017,9017016,10016016,10016017,10017017,10017016
2045,9017007,9017008,9018008,9018007,10017007,10017008,10018008,10018007
2046,9017008,9017009,9018009,9018008,10017008,10017009,10018009,10018008
2047,9017009,9017010,9018010,9018009,10017009,10017010,10018010,10018009
2048,9017010,9017011,9018011,9018010,10017010,10017011,10018011,10018010
2049,9017011,9017012,9018012,9018011,10017011,10017012,10018012,10018011
2050,9017012,9017013,9018013,9018012,10017012,10017013,10018013,10018012
2051,9017013,9017014,9018014,9018013,10017013,10017014,10018014,10018013
2052,9017014,9017015,9018015,9018014,10017014,10017015,10018015,10018014
2053,9018009,9018010,9019010,9019009,10018009,10018010,10019010,10019009
2054,9018010,9018011,9019011,9019010,10018010,10018011,10019011,10019010
2055,9018011,9018012,9019012,9019011,10018011,10018012,10019012,10019011
2056,9018012,9018013,9019013,9019012,10018012,10018013,10019013,10019012
*ELSET,ELSET=EBRIDGE
1,2,3,4,5,6,7,8,9,10,11,12,13,14,15,16
17,18,19,20,21,22,23,24,25,26,27,28,29,30,31,32
33,34,35,36,37,38,39,40,41,42,43,44,45,46,47,48
49,50,51,52,53,54,55,56,57,58,59,60,61,62,63,64
65,66,67,68,69,70,71,72,73,74,75,76,77,78,79,80
81,82,83,84,85,86,87,88,89,90,91,92,93,94,95,96
97,98,99,100,101,102,103,104,105,106,107,108,109,110,111,112
113,114,115,116,117,118,119,120,121,122,123,124,125,126,127,128
129,130,131,132,133,134,135,136,137,138,139,140,141,142,143,144
145,146,147,148,149,150,151,152,153,154,155,156,157,158,159,160
161,162,163,164,165,166,167,168,169,170,171,172,173,174,175,176
177,178,179,180,181,182,183,184,185,186,187,188,189,190,191,192
193,194,195,196,197,198,199,200,201,202,203,204,205,206,207,208
209,210,211,212,213,214,215,216,217,218,219,220,221,222,223,224
225,226,227,228,229,230,231,232,233,234,235,236,237,238,239,240
241,242,243,244,245,246,247,248,249,250,251,252,253,254,255,256
257,258,259,260,261,262,263,264,265,266,267,268,269,270,271,272
273,274,275,276,277,278,279,280,281,282,283,284,285,286,287,288
289,290,291,292,293,294,295,296,297,298,299,300,301,302,303,304
305,306,307,308,309,310,311,312,313,314,315,316,317,318,319,320
321,322,323,324,325,326,327,328,329,330,331,332,333,334,335,336
337,338,339,340,341,342,343,344,345,346,347,348,349,350,351,352
353,354,355,356,357,358,359,360,361,362,363,364,365,366,367,368
369,370,371,372,373,374,375,376,377,378,379,380,381,382,383,384
385,386,387,388,389,390,391,392,393,394,395,396,397,398,399,400
401,402,403,404,405,406,407,408,409,410,411,412,413,414,415,416
417,418,419,420,421,422,423,424,425,426,427,428,429,430,431,432
433,434,435,436,437,438,439,440,441,442,443,444,445,446,447,448
449,450,451,452,453,454,455,456,457,458,459,460,461,462,463,464
465,466,467,468,469,470,471,472,473,474,475,476,477,478,479,480
481,482,483,484,485,486,487,488,489,490,491,492,493,494,495,496
497,498,499,500,501,502,503,504,505,506,507,508,509,510,511,512
513,514,515,516,517,518,519,520,521,522,523,524,525,526,527,528
529,530,531,532,533,534,535,536,537,538,539,540,541,542,543,544
545,546,547,548,549,550,551,552,553,554,555,556,557,558,559,560
561,562,563,564,565,566,567,568,569,570,571,572,573,574,575,576
577,578,579,580,581,582,583,584,585,586,587,588,589,590,591,592
593,594,595,596,597,598,599,600,601,602,603,604,605,606,607,608
609,610,611,612,613,614,615,616,617,618,619,620,621,622,623,624
625,626,627,628,629,630,631,632,633,634,635,636,637,638,639,640
641,642,643,644,645,646,647,648,649,650,651,652,653,654,655,656
657,658,659,660,661,662,663,664,665,666,667,668,669,670,671,672
673,674,675,676,677,678,679,680,681,682,683,684,685,686,687,688
689,690,691,692,693,694,695,696,697,698,699,700,701,702,703,704
705,706,707,708,709,710,711,712,713,714,715,716,717,718,719,720
721,722,723,724,725,726,727,728,729,730,731,732,733,734,735,736
*ELSET,ELSET=ESTAGEB
737,738,739,740,741,742,743,744,745,746,747,748,749,750,751,752
753,754,755,756,757,758,759,760,761,762,763,764,765,766,767,768
769,770,771,772,773,774,775,776,777,778,779,780,781,782,783,784
785,786,787,788,789,790,791,792,793,794,795,796,797,798,799,800
801,802,803,804,805,806,807,808,809,810,811,812,813,814,815,816
817,818,819,820,821,822,823,824,825,826,827,828,829,830,831,832
833,834,835,836,837,838,839,840,841,842,843,844,845,846,847,848
849,850,851,852,853,854,855,856,857,858,859,860,861,862,863,864
865,866,867,868,869,870,871,872,873,874,875,876,877,878,879,880
881,882,883,884,885,886,887,888,889,890,891,892,893,894,895,896
897,898,899,900,901,902,903,904,905,906,907,908,909,910,911,912
913,914,915,916,917,918,919,920,921,922,923,924,925,926,927,928
929,930,931,932,933,934,935,936,937,938,939,940,941,942,943,944
945,946,947,948,949,950,951,952,953,954,955,956,957,958,959,960
961,962,963,964,965,966,967,968,969,970,971,972,973,974,975,976
977,978,979,980,981,982,983,984,985,986,987,988,989,990,991,992
993,994,995,996,997,998,999,1000,1001,1002,1003,1004,1005,1006,1007,1008
1009,1010,1011,1012,1013,1014,1015,1016,1017,1018,1019,1020,1021,1022,1023,1024
1025,1026,1027,1028,1029,1030,1031,1032,1033,1034,1035,1036,1037,1038,1039,1040
1041,1042,1043,1044,1045,1046,1047,1048,1049,1050,1051,1052,1053,1054,1055,1056
1057,1058,1059,1060,1061,1062,1063,1064,1065,1066,1067,1068,1069,1070,1071,1072
1073,1074,1075,1076,1077,1078,1079,1080,1081,1082,1083,1084,1085,1086,1087,1088
1089,1090,1091,1092,1093,1094,1095,1096,1097,1098,1099,1100,1101,1102,1103,1104
1105,1106,1107,1108,1109,1110,1111,1112,1113,1114,1115,1116,1117,1118,1119,1120
1121,1122,1123,1124,1125,1126,1127,1128,1129,1130,1131,1132,1133,1134,1135,1136
1137,1138,1139,1140,1141,1142,1143,1144,1145,1146,1147,1148,1149,1150,1151,1152
1153,1154,1155,1156,1157,1158,1159,1160,1161,1162,1163,1164,1165,1166,1167,1168
1169,1170,1171,1172,1173,1174,1175,1176,1177,1178,1179,1180,1181,1182,1183,1184
1185,1186,1187,1188,1189,1190,1191,1192,1193,1194,1195,1196,1197,1198,1199,1200
1201,1202,1203,1204,1205,1206,1207,1208,1209,1210,1211,1212,1213,1214,1215,1216
1217,1218,1219,1220,1221,1222,1223,1224,1225,1226,1227,1228,1229,1230,1231,1232
1233,1234,1235,1236,1237,1238,1239,1240,1241,1242,1243,1244,1245,1246,1247,1248
1249,1250,1251,1252,1253,1254,1255,1256,1257,1258,1259,1260,1261,1262,1263,1264
1265,1266,1267,1268,1269,1270,1271,1272,1273,1274,1275,1276,1277,1278,1279,1280
1281,1282,1283,1284,1285,1286,1287,1288,1289,1290,1291,1292,1293,1294,1295,1296
1297,1298,1299,1300,1301,1302,1303,1304,1305,1306,1307,1308,1309,1310,1311,1312
1313,1314,1315,1316,1317,1318,1319,1320,1321,1322,1323,1324,1325,1326,1327,1328
1329,1330,1331,1332,1333,1334,1335,1336,1337,1338,1339,1340,1341,1342,1343,1344
1345,1346,1347,1348,1349,1350,1351,1352,1353,1354,1355,1356,1357,1358,1359,1360
1361,1362,1363,1364,1365,1366,1367,1368,1369,1370,1371,1372,1373,1374,1375,1376
1377,1378,1379,1380,1381,1382,1383,1384,1385,1386,1387,1388,1389,1390,1391,1392
1393,1394,1395,1396,1397,1398,1399,1400,1401,1402,1403,1404,1405,1406,1407,1408
1409,1410,1411,1412,1413,1414,1415,1416,1417,1418,1419,1420,1421,1422,1423,1424
1425,1426,1427,1428,1429,1430,1431,1432,1433,1434,1435,1436,1437,1438,1439,1440
1441,1442,1443,1444,1445,1446,1447,1448,1449,1450,1451,1452,1453,1454,1455,1456
1457,1458,1459,1460,1461,1462,1463,1464,1465,1466,1467,1468,1469,1470,1471,1472
1473,1474,1475,1476,1477,1478,1479,1480,1481,1482,1483,1484,1485,1486,1487,1488
1489,1490,1491,1492,1493,1494,1495,1496,1497,1498,1499,1500,1501,1502,1503,1504
1505,1506,1507,1508,1509,1510,1511,1512,1513,1514,1515,1516,1517,1518,1519,1520
1521,1522,1523,1524,1525,1526,1527,1528,1529,1530,1531,1532,1533,1534,1535,1536
1537,1538,1539,1540,1541,1542,1543,1544,1545,1546,1547,1548,1549,1550,1551,1552
1553,1554,1555,1556,1557,1558,1559,1560,1561,1562,1563,1564,1565,1566,1567,1568
1569,1570,1571,1572,1573,1574,1575,1576,1577,1578,1579,1580,1581,1582,1583,1584
1585,1586,1587,1588,1589,1590,1591,1592,1593,1594,1595,1596,1597,1598,1599,1600
1601,1602,1603,1604,1605,1606,1607,1608,1609,1610,1611,1612,1613,1614,1615,1616
1617,1618,1619,1620,1621,1622,1623,1624,1625,1626,1627,1628,1629,1630,1631,1632
1633,1634,1635,1636,1637,1638,1639,1640
*ELSET,ELSET=ESTAGEA
1641,1642,1643,1644,1645,1646,1647,1648,1649,1650,1651,1652,1653,1654,1655,1656
1657,1658,1659,1660,1661,1662,1663,1664,1665,1666,1667,1668,1669,1670,1671,1672
1673,1674,1675,1676,1677,1678,1679,1680,1681,1682,1683,1684,1685,1686,1687,1688
1689,1690,1691,1692,1693,1694,1695,1696,1697,1698,1699,1700,1701,1702,1703,1704
1705,1706,1707,1708,1709,1710,1711,1712,1713,1714,1715,1716,1717,1718,1719,1720
1721,1722,1723,1724,1725,1726,1727,1728,1729,1730,1731,1732,1733,1734,1735,1736
1737,1738,1739,1740,1741,1742,1743,1744,1745,1746,1747,1748,1749,1750,1751,1752
1753,1754,1755,1756,1757,1758,1759,1760,1761,1762,1763,1764,1765,1766,1767,1768
1769,1770,1771,1772,1773,1774,1775,1776,1777,1778,1779,1780,1781,1782,1783,1784
1785,1786,1787,1788,1789,1790,1791,1792,1793,1794,1795,1796,1797,1798,1799,1800
1801,1802,1803,1804,1805,1806,1807,1808,1809,1810,1811,1812,1813,1814,1815,1816
1817,1818,1819,1820,1821,1822,1823,1824,1825,1826,1827,1828,1829,1830,1831,1832
1833,1834,1835,1836,1837,1838,1839,1840,1841,1842,1843,1844,1845,1846,1847,1848
1849,1850,1851,1852,1853,1854,1855,1856,1857,1858,1859,1860,1861,1862,1863,1864
1865,1866,1867,1868,1869,1870,1871,1872,1873,1874,1875,1876,1877,1878,1879,1880
1881,1882,1883,1884,1885,1886,1887,1888,1889,1890,1891,1892,1893,1894,1895,1896
1897,1898,1899,1900,1901,1902,1903,1904,1905,1906,1907,1908,1909,1910,1911,1912
1913,1914,1915,1916,1917,1918,1919,1920,1921,1922,1923,1924,1925,1926,1927,1928
1929,1930,1931,1932,1933,1934,1935,1936,1937,1938,1939,1940,1941,1942,1943,1944
1945,1946,1947,1948,1949,1950,1951,1952,1953,1954,1955,1956,1957,1958,1959,1960
1961,1962,1963,1964,1965,1966,1967,1968,1969,1970,1971,1972,1973,1974,1975,1976
1977,1978,1979,1980,1981,1982,1983,1984,1985,1986,1987,1988,1989,1990,1991,1992
1993,1994,1995,1996,1997,1998,1999,2000,2001,2002,2003,2004,2005,2006,2007,2008
2009,2010,2011,2012,2013,2014,2015,2016,2017,2018,2019,2020,2021,2022,2023,2024
2025,2026,2027,2028,2029,2030,2031,2032,2033,2034,2035,2036,2037,2038,2039,2040
2041,2042,2043,2044,2045,2046,2047,2048,2049,2050,2051,2052,2053,2054,2055,2056
*ELSET,ELSET=EPROBES
694,1535,2027,178
*NSET,NSET=NFIXED
1000001,1000002,1000003,1000004,1000005,1000006,1000007,1000008,1000009,1000010,1000011,1000012,1000013,1000014,1000015,1000016
1000017,1000018,1000019,1000020,1000021,1001001,1001002,1001003,1001004,1001005,1001006,1001007,1001008,1001009,1001010,1001011
1001012,1001013,1001014,1001015,1001016,1001017,1001018,1001019,1001020,1001021,1002001,1002002,1002003,1002004,1002005,1002006
1002007,1002008,1002009,1002010,1002011,1002012,1002013,1002014,1002015,1002016,1002017,1002018,1002019,1002020,1002021,1003001
1003002,1003003,1003004,1003005,1003006,1003007,1003008,1003009,1003010,1003011,1003012,1003013,1003014,1003015,1003016,1003017
1003018,1003019,1003020,1003021,1004001,1004002,1004003,1004004,1004005,1004006,1004007,1004008,1004009,1004010,1004011,1004012
1004013,1004014,1004015,1004016,1004017,1004018,1004019,1004020,1004021,1005001,1005002,1005003,1005004,1005005,1005006,1005007
1005008,1005009,1005010,1005011,1005012,1005013,1005014,1005015,1005016,1005017,1005018,1005019,1005020,1005021,1006001,1006002
1006003,1006004,1006005,1006006,1006007,1006008,1006009,1006010,1006011,1006012,1006013,1006014,1006015,1006016,1006017,1006018
1006019,1006020,1006021,1007001,1007002,1007003,1007004,1007005,1007006,1007007,1007008,1007009,1007010,1007011,1007012,1007013
1007014,1007015,1007016,1007017,1007018,1007019,1007020,1007021,1008001,1008002,1008003,1008004,1008005,1008006,1008007,1008008
1008009,1008013,1008014,1008015,1008016,1008017,1008018,1008019,1008020,1008021,1009001,1009002,1009003,1009004,1009005,1009006
1009007,1009008,1009014,1009015,1009016,1009017,1009018,1009019,1009020,1009021,1010001,1010002,1010003,1010004,1010005,1010006
1010007,1010008,1010014,1010015,1010016,1010017,1010018,1010019,1010020,1010021,1011001,1011002,1011003,1011004,1011005,1011006
1011007,1011008,1011014,1011015,1011016,1011017,1011018,1011019,1011020,1011021,1012001,1012002,1012003,1012004,1012005,1012006
1012007,1012008,1012009,1012013,1012014,1012015,1012016,1012017,1012018,1012019,1012020,1012021,1013001,1013002,1013003,1013004
1013005,1013006,1013007,1013008,1013009,1013010,1013011,1013012,1013013,1013014,1013015,1013016,1013017,1013018,1013019,1013020
1013021,1014001,1014002,1014003,1014004,1014005,1014006,1014007,1014008,1014009,1014010,1014011,1014012,1014013,1014014,1014015
1014016,1014017,1014018,1014019,1014020,1014021,1015001,1015002,1015003,1015004,1015005,1015006,1015007,1015008,1015009,1015010
1015011,1015012,1015013,1015014,1015015,1015016,1015017,1015018,1015019,1015020,1015021,1016001,1016002,1016003,1016004,1016005
1016006,1016007,1016008,1016009,1016010,1016011,1016012,1016013,1016014,1016015,1016016,1016017,1016018,1016019,1016020,1016021
1017001,1017002,1017003,1017004,1017005,1017006,1017007,1017008,1017009,1017010,1017011,1017012,1017013,1017014,1017015,1017016
1017017,1017018,1017019,1017020,1017021,1018001,1018002,1018003,1018004,1018005,1018006,1018007,1018008,1018009,1018010,1018011
1018012,1018013,1018014,1018015,1018016,1018017,1018018,1018019,1018020,1018021,1019001,1019002,1019003,1019004,1019005,1019006
1019007,1019008,1019009,1019010,1019011,1019012,1019013,1019014,1019015,1019016,1019017,1019018,1019019,1019020,1019021,1020001
1020002,1020003,1020004,1020005,1020006,1020007,1020008,1020009,1020010,1020011,1020012,1020013,1020014,1020015,1020016,1020017
1020018,1020019,1020020,1020021
*NSET,NSET=NRP
99000000
*NSET,NSET=NS_ARM_SPIDER
10004009,10004010,10005008,10005009,10005010,10007016,10008016,10008017,10009016,10009017,10011005,10011006,10012005,10012006,10013006,10015012
10015013,10015014,10016012,10016013
*NSET,NSET=NS_M5_1
7012018,7013017,7013018,7013019,7014018,8012018,8013017,8013018,8013019,8014018
*NSET,NSET=NS_M5_2
7016014,7017013,7017014,7017015,7018014,8016014,8017013,8017014,8017015,8018014
*NSET,NSET=NS_M5_3
7016008,7017007,7017008,7017009,7018008,8016008,8017007,8017008,8017009,8018008
*NSET,NSET=NS_M5_4
7012004,7013003,7013004,7013005,7014004,8012004,8013003,8013004,8013005,8014004
*NSET,NSET=NS_M5_5
7006004,7007003,7007004,7007005,7008004,8006004,8007003,8007004,8007005,8008004
*NSET,NSET=NS_M5_6
7002008,7003007,7003008,7003009,7004008,8002008,8003007,8003008,8003009,8004008
*NSET,NSET=NS_M5_7
7002014,7003013,7003014,7003015,7004014,8002014,8003013,8003014,8003015,8004014
*NSET,NSET=NS_M5_8
7006018,7007017,7007018,7007019,7008018,8006018,8007017,8007018,8007019,8008018
*NSET,NSET=NS_M6_1
3018019,3018020,3018021,3019019,3019020,3019021,3020019,3020020,4018019,4018020,4018021,4019019,4019020,4019021,4020019,4020020
*NSET,NSET=NS_M6_2
3000019,3000020,3001019,3001020,3001021,3002019,3002020,3002021,4000019,4000020,4001019,4001020,4001021,4002019,4002020,4002021
*NSET,NSET=NS_M6_3
3018001,3018002,3018003,3019001,3019002,3019003,3020002,3020003,4018001,4018002,4018003,4019001,4019002,4019003,4020002,4020003
*NSET,NSET=NS_M6_4
3000002,3000003,3001001,3001002,3001003,3002001,3002002,3002003,4000002,4000003,4001001,4001002,4001003,4002001,4002002,4002003
*MATERIAL,NAME=AL6061_T6_CAND
*ELASTIC
68300.0,0.33
*DENSITY
2.700e-09
*SOLID SECTION,ELSET=EBRIDGE,MATERIAL=AL6061_T6_CAND
*SOLID SECTION,ELSET=ESTAGEB,MATERIAL=AL6061_T6_CAND
*SOLID SECTION,ELSET=ESTAGEA,MATERIAL=AL6061_T6_CAND
*BOUNDARY
NFIXED,ENCASTRE
** joint couplings (bolt-disk rigid zones) -- identical to solved FEA-1
*SURFACE,TYPE=NODE,NAME=S_NS_ARM_SPIDER
NS_ARM_SPIDER,
*SURFACE,TYPE=NODE,NAME=S_NS_M5_1
NS_M5_1,
*SURFACE,TYPE=NODE,NAME=S_NS_M5_2
NS_M5_2,
*SURFACE,TYPE=NODE,NAME=S_NS_M5_3
NS_M5_3,
*SURFACE,TYPE=NODE,NAME=S_NS_M5_4
NS_M5_4,
*SURFACE,TYPE=NODE,NAME=S_NS_M5_5
NS_M5_5,
*SURFACE,TYPE=NODE,NAME=S_NS_M5_6
NS_M5_6,
*SURFACE,TYPE=NODE,NAME=S_NS_M5_7
NS_M5_7,
*SURFACE,TYPE=NODE,NAME=S_NS_M5_8
NS_M5_8,
*SURFACE,TYPE=NODE,NAME=S_NS_M6_1
NS_M6_1,
*SURFACE,TYPE=NODE,NAME=S_NS_M6_2
NS_M6_2,
*SURFACE,TYPE=NODE,NAME=S_NS_M6_3
NS_M6_3,
*SURFACE,TYPE=NODE,NAME=S_NS_M6_4
NS_M6_4,
*COUPLING,CONSTRAINT NAME=M6_1,REF NODE=99000100,SURFACE=S_NS_M6_1
*KINEMATIC
1,6
*COUPLING,CONSTRAINT NAME=M6_2,REF NODE=99000101,SURFACE=S_NS_M6_2
*KINEMATIC
1,6
*COUPLING,CONSTRAINT NAME=M6_3,REF NODE=99000102,SURFACE=S_NS_M6_3
*KINEMATIC
1,6
*COUPLING,CONSTRAINT NAME=M6_4,REF NODE=99000103,SURFACE=S_NS_M6_4
*KINEMATIC
1,6
*COUPLING,CONSTRAINT NAME=M5_1,REF NODE=99000200,SURFACE=S_NS_M5_1
*KINEMATIC
1,6
*COUPLING,CONSTRAINT NAME=M5_2,REF NODE=99000201,SURFACE=S_NS_M5_2
*KINEMATIC
1,6
*COUPLING,CONSTRAINT NAME=M5_3,REF NODE=99000202,SURFACE=S_NS_M5_3
*KINEMATIC
1,6
*COUPLING,CONSTRAINT NAME=M5_4,REF NODE=99000203,SURFACE=S_NS_M5_4
*KINEMATIC
1,6
*COUPLING,CONSTRAINT NAME=M5_5,REF NODE=99000204,SURFACE=S_NS_M5_5
*KINEMATIC
1,6
*COUPLING,CONSTRAINT NAME=M5_6,REF NODE=99000205,SURFACE=S_NS_M5_6
*KINEMATIC
1,6
*COUPLING,CONSTRAINT NAME=M5_7,REF NODE=99000206,SURFACE=S_NS_M5_7
*KINEMATIC
1,6
*COUPLING,CONSTRAINT NAME=M5_8,REF NODE=99000207,SURFACE=S_NS_M5_8
*KINEMATIC
1,6
*COUPLING,CONSTRAINT NAME=ARM_SPIDER,REF NODE=99000000,SURFACE=S_NS_ARM_SPIDER
*KINEMATIC
1,6
*STEP,NAME=QS_STEP,NLGEOM=NO
*STATIC
1.0,1.0
*CLOAD
99000000,2,7.21244
99000000,6,1846.1363212000001
*NODE PRINT,NSET=NFIXED
RF
*NODE PRINT,NSET=NRP
U
*EL PRINT,ELSET=EPROBES
S
*ENERGY PRINT
*OUTPUT,FIELD,VARIABLE=PRESELECT
*OUTPUT,HISTORY
*ENERGY OUTPUT
*END STEP
