*HEADING
FEA1B_M3R_INTERFACE  case=ARM_ESTOP_QS  mesh=Z2_ZR_N20K2  eltype=C3D8I  material=AL6061_T6_CAND
M7 WP7 FEA_OPERATIONAL element-formulation closure (ODR-11/ODR-12).
Units: N, mm, MPa, tonne. Linear static. DESIGN_INDICATIVE results only.
** ELEMENT_FORMULATION: C3D8I -- incompatible-mode 8-node hex, 2x2x2 full integration, no hourglass modes, incompatible modes relieve shear locking in bending-dominated thin features (PRIMARY choice)
** MESH_SERIES: Z_REFINEMENT_FIXED_INPLANE  n_xy=20 (pitch 8 mm)  kz=2
** ASSUMPTION: LINEAR_STATIC_SMALL_DISPLACEMENT (NLGEOM off; loads are milli-g level)
** ASSUMPTION: BUS_SIDE_ENCASTRE_ASSUMPTION: BC-BUS-001 bus stiffness authority is HOLD; z=0 face fully clamped = stiff-boundary design bound
** ASSUMPTION: BOLT_DISK_KINEMATIC_COUPLING_ASSUMPTION: M6/M5/M4 joints modelled as rigid coupling disks (r_b=12/10/10 mm, auto-grow to >=1 node/face, recorded); no preload, no friction, no slip
** ASSUMPTION: ARM_BASE_RIGID_SPIDER_ASSUMPTION: B601 base flange stiffness >> 8 mm ring; single RP spider onto 4 as-built M4 disks; sensitivity covered by the 3-level mesh convergence series (CDR rigid_spider rule)
** ASSUMPTION: NO_CONTACT_NO_PRELOAD_NO_FRICTION: CDR joint mechanics HOLD; faces outside bolt disks untied (separation/interpenetration possible; Level-1 bound)
** ASSUMPTION: STAGE_B_IDEALIZED_ANNULAR_PLATE: pocket/recess not resolved; bore dia100 through bottom 2 layers; centre web r<50 modelled 4.0 mm (real 5.595)
** ASSUMPTION: STAGE_A_IDEALIZED_UNIFORM_RING: OD150/ID40 x 8.0 uniform; spigot, recess, counterbores not resolved
** ASSUMPTION: BRIDGE_CORNER_RADIUS_OMITTED: R4 corners modelled square; all boundaries stepped at element corners
** ASSUMPTION: SMALL_HOLES_NOT_CUT: dia6.6/5.5/4.6 holes represented by coupling disks, not voids (locally stiffer); hole-edge peak stress NOT qualified here
** ASSUMPTION: POISSON_ASSUMPTION: nu=0.33 for both Al candidates (not in M6 library)
** ASSUMPTION: MATERIALS_CANDIDATE: 6061-T6 / 7075-T651 elastic constants from M6 WP4 library, classification PROTOTYPE_CANDIDATE; margins DESIGN_INDICATIVE only
** ASSUMPTION: DYNAMIC_FACTOR_ASSUMPTION: quasi-static equivalence F_eq=DAF*J/dt, DAF=2.0, dt=0.1 s; both declared assumptions, research-bound
** ASSUMPTION: LOAD_DIRECTION_ASSUMPTION: transverse +y force plus bending moment about +z; worst-axis alignment declared (near-axisymmetric stack)
** ASSUMPTION: MEMORY_GATE_MESH_ADAPTATION: seeds 16/10/8 mm replace draft 4/2/1 mm; <=4000 C3D8R; 6.7 mm ligament NOT resolved with 3 elements; convergence assessed on global maxima trend only
** ASSUMPTION: ARM_LOADS_BOUNDED_BY_ASSUMPTION: quintic peak accel from LC-010 trajectory x r_eff=0.7 m; e-stop = 2x maneuver; arm inertia tensor not reduced (arm cases shown to be non-governing)
** ASSUMPTION: ELEMENT_FORMULATION_CHANGE: C3D8R (1 IP + hourglass control) replaced by C3D8I (2x2x2 full integration + incompatible modes). No hourglass modes exist in C3D8I, so ALLAE must collapse to ~0; this is the acceptance test
** ASSUMPTION: IP_COUNT_COMPARABILITY: C3D8R reports 1 centroidal integration point, so its 'peak von Mises' is already an element-average; C3D8I reports 8 Gauss points, whose peak is systematically above the element average in a bending field. C3D8R peak must therefore be compared against the C3D8I ELEMENT-AVERAGED value, not against the C3D8I peak IP value
** ASSUMPTION: THROUGH_THICKNESS_REFINEMENT: kz multiplies the layer count of every z segment (bridge 2kz, stage B annulus 2kz, stage B web 1kz, stage A 2kz); kz=1 reproduces the FEA-1 plane list node-for-node
** ASSUMPTION: STAIRCASE_BOUNDARY_SINGULARITY: the dia-40 / dia-100 / OD-150 circular boundaries are stepped at element corners, so each in-plane refinement level presents a DIFFERENT discrete re-entrant-corner set. Peak stress at those steps cannot converge by construction and is excluded from the region-stress convergence metric (fixed 10 mm geometric band)
** ASSUMPTION: POINT_COUPLING_SINGULARITY: the arm-base RP kinematic coupling and the per-bolt kinematic couplings are point/patch constraints; peak stress in their immediate neighbourhood rises monotonically with refinement as a constraint singularity and is reported separately (ODR-11 singularity rule), with a fixed 15 mm exclusion radius for the far-field metric
** Case load: F_y=0.62101640472074293 N, M_z=434.71148330452002 N*mm (estop_factor(2.0, declared) x ARM_MANEUVER_QS)
**
*NODE
1000001,-80.000000,-80.000000,0.000000
1000002,-72.000000,-80.000000,0.000000
1000003,-64.000000,-80.000000,0.000000
1000004,-56.000000,-80.000000,0.000000
1000005,-48.000000,-80.000000,0.000000
1000006,-40.000000,-80.000000,0.000000
1000007,-32.000000,-80.000000,0.000000
1000008,-24.000000,-80.000000,0.000000
1000009,-16.000000,-80.000000,0.000000
1000010,-8.000000,-80.000000,0.000000
1000011,0.000000,-80.000000,0.000000
1000012,8.000000,-80.000000,0.000000
1000013,16.000000,-80.000000,0.000000
1000014,24.000000,-80.000000,0.000000
1000015,32.000000,-80.000000,0.000000
1000016,40.000000,-80.000000,0.000000
1000017,48.000000,-80.000000,0.000000
1000018,56.000000,-80.000000,0.000000
1000019,64.000000,-80.000000,0.000000
1000020,72.000000,-80.000000,0.000000
1000021,80.000000,-80.000000,0.000000
1001001,-80.000000,-72.000000,0.000000
1001002,-72.000000,-72.000000,0.000000
1001003,-64.000000,-72.000000,0.000000
1001004,-56.000000,-72.000000,0.000000
1001005,-48.000000,-72.000000,0.000000
1001006,-40.000000,-72.000000,0.000000
1001007,-32.000000,-72.000000,0.000000
1001008,-24.000000,-72.000000,0.000000
1001009,-16.000000,-72.000000,0.000000
1001010,-8.000000,-72.000000,0.000000
1001011,0.000000,-72.000000,0.000000
1001012,8.000000,-72.000000,0.000000
1001013,16.000000,-72.000000,0.000000
1001014,24.000000,-72.000000,0.000000
1001015,32.000000,-72.000000,0.000000
1001016,40.000000,-72.000000,0.000000
1001017,48.000000,-72.000000,0.000000
1001018,56.000000,-72.000000,0.000000
1001019,64.000000,-72.000000,0.000000
1001020,72.000000,-72.000000,0.000000
1001021,80.000000,-72.000000,0.000000
1002001,-80.000000,-64.000000,0.000000
1002002,-72.000000,-64.000000,0.000000
1002003,-64.000000,-64.000000,0.000000
1002004,-56.000000,-64.000000,0.000000
1002005,-48.000000,-64.000000,0.000000
1002006,-40.000000,-64.000000,0.000000
1002007,-32.000000,-64.000000,0.000000
1002008,-24.000000,-64.000000,0.000000
1002009,-16.000000,-64.000000,0.000000
1002010,-8.000000,-64.000000,0.000000
1002011,0.000000,-64.000000,0.000000
1002012,8.000000,-64.000000,0.000000
1002013,16.000000,-64.000000,0.000000
1002014,24.000000,-64.000000,0.000000
1002015,32.000000,-64.000000,0.000000
1002016,40.000000,-64.000000,0.000000
1002017,48.000000,-64.000000,0.000000
1002018,56.000000,-64.000000,0.000000
1002019,64.000000,-64.000000,0.000000
1002020,72.000000,-64.000000,0.000000
1002021,80.000000,-64.000000,0.000000
1003001,-80.000000,-56.000000,0.000000
1003002,-72.000000,-56.000000,0.000000
1003003,-64.000000,-56.000000,0.000000
1003004,-56.000000,-56.000000,0.000000
1003005,-48.000000,-56.000000,0.000000
1003006,-40.000000,-56.000000,0.000000
1003007,-32.000000,-56.000000,0.000000
1003008,-24.000000,-56.000000,0.000000
1003009,-16.000000,-56.000000,0.000000
1003010,-8.000000,-56.000000,0.000000
1003011,0.000000,-56.000000,0.000000
1003012,8.000000,-56.000000,0.000000
1003013,16.000000,-56.000000,0.000000
1003014,24.000000,-56.000000,0.000000
1003015,32.000000,-56.000000,0.000000
1003016,40.000000,-56.000000,0.000000
1003017,48.000000,-56.000000,0.000000
1003018,56.000000,-56.000000,0.000000
1003019,64.000000,-56.000000,0.000000
1003020,72.000000,-56.000000,0.000000
1003021,80.000000,-56.000000,0.000000
1004001,-80.000000,-48.000000,0.000000
1004002,-72.000000,-48.000000,0.000000
1004003,-64.000000,-48.000000,0.000000
1004004,-56.000000,-48.000000,0.000000
1004005,-48.000000,-48.000000,0.000000
1004006,-40.000000,-48.000000,0.000000
1004007,-32.000000,-48.000000,0.000000
1004008,-24.000000,-48.000000,0.000000
1004009,-16.000000,-48.000000,0.000000
1004010,-8.000000,-48.000000,0.000000
1004011,0.000000,-48.000000,0.000000
1004012,8.000000,-48.000000,0.000000
1004013,16.000000,-48.000000,0.000000
1004014,24.000000,-48.000000,0.000000
1004015,32.000000,-48.000000,0.000000
1004016,40.000000,-48.000000,0.000000
1004017,48.000000,-48.000000,0.000000
1004018,56.000000,-48.000000,0.000000
1004019,64.000000,-48.000000,0.000000
1004020,72.000000,-48.000000,0.000000
1004021,80.000000,-48.000000,0.000000
1005001,-80.000000,-40.000000,0.000000
1005002,-72.000000,-40.000000,0.000000
1005003,-64.000000,-40.000000,0.000000
1005004,-56.000000,-40.000000,0.000000
1005005,-48.000000,-40.000000,0.000000
1005006,-40.000000,-40.000000,0.000000
1005007,-32.000000,-40.000000,0.000000
1005008,-24.000000,-40.000000,0.000000
1005009,-16.000000,-40.000000,0.000000
1005010,-8.000000,-40.000000,0.000000
1005011,0.000000,-40.000000,0.000000
1005012,8.000000,-40.000000,0.000000
1005013,16.000000,-40.000000,0.000000
1005014,24.000000,-40.000000,0.000000
1005015,32.000000,-40.000000,0.000000
1005016,40.000000,-40.000000,0.000000
1005017,48.000000,-40.000000,0.000000
1005018,56.000000,-40.000000,0.000000
1005019,64.000000,-40.000000,0.000000
1005020,72.000000,-40.000000,0.000000
1005021,80.000000,-40.000000,0.000000
1006001,-80.000000,-32.000000,0.000000
1006002,-72.000000,-32.000000,0.000000
1006003,-64.000000,-32.000000,0.000000
1006004,-56.000000,-32.000000,0.000000
1006005,-48.000000,-32.000000,0.000000
1006006,-40.000000,-32.000000,0.000000
1006007,-32.000000,-32.000000,0.000000
1006008,-24.000000,-32.000000,0.000000
1006009,-16.000000,-32.000000,0.000000
1006010,-8.000000,-32.000000,0.000000
1006011,0.000000,-32.000000,0.000000
1006012,8.000000,-32.000000,0.000000
1006013,16.000000,-32.000000,0.000000
1006014,24.000000,-32.000000,0.000000
1006015,32.000000,-32.000000,0.000000
1006016,40.000000,-32.000000,0.000000
1006017,48.000000,-32.000000,0.000000
1006018,56.000000,-32.000000,0.000000
1006019,64.000000,-32.000000,0.000000
1006020,72.000000,-32.000000,0.000000
1006021,80.000000,-32.000000,0.000000
1007001,-80.000000,-24.000000,0.000000
1007002,-72.000000,-24.000000,0.000000
1007003,-64.000000,-24.000000,0.000000
1007004,-56.000000,-24.000000,0.000000
1007005,-48.000000,-24.000000,0.000000
1007006,-40.000000,-24.000000,0.000000
1007007,-32.000000,-24.000000,0.000000
1007008,-24.000000,-24.000000,0.000000
1007009,-16.000000,-24.000000,0.000000
1007010,-8.000000,-24.000000,0.000000
1007011,0.000000,-24.000000,0.000000
1007012,8.000000,-24.000000,0.000000
1007013,16.000000,-24.000000,0.000000
1007014,24.000000,-24.000000,0.000000
1007015,32.000000,-24.000000,0.000000
1007016,40.000000,-24.000000,0.000000
1007017,48.000000,-24.000000,0.000000
1007018,56.000000,-24.000000,0.000000
1007019,64.000000,-24.000000,0.000000
1007020,72.000000,-24.000000,0.000000
1007021,80.000000,-24.000000,0.000000
1008001,-80.000000,-16.000000,0.000000
1008002,-72.000000,-16.000000,0.000000
1008003,-64.000000,-16.000000,0.000000
1008004,-56.000000,-16.000000,0.000000
1008005,-48.000000,-16.000000,0.000000
1008006,-40.000000,-16.000000,0.000000
1008007,-32.000000,-16.000000,0.000000
1008008,-24.000000,-16.000000,0.000000
1008009,-16.000000,-16.000000,0.000000
1008013,16.000000,-16.000000,0.000000
1008014,24.000000,-16.000000,0.000000
1008015,32.000000,-16.000000,0.000000
1008016,40.000000,-16.000000,0.000000
1008017,48.000000,-16.000000,0.000000
1008018,56.000000,-16.000000,0.000000
1008019,64.000000,-16.000000,0.000000
1008020,72.000000,-16.000000,0.000000
1008021,80.000000,-16.000000,0.000000
1009001,-80.000000,-8.000000,0.000000
1009002,-72.000000,-8.000000,0.000000
1009003,-64.000000,-8.000000,0.000000
1009004,-56.000000,-8.000000,0.000000
1009005,-48.000000,-8.000000,0.000000
1009006,-40.000000,-8.000000,0.000000
1009007,-32.000000,-8.000000,0.000000
1009008,-24.000000,-8.000000,0.000000
1009014,24.000000,-8.000000,0.000000
1009015,32.000000,-8.000000,0.000000
1009016,40.000000,-8.000000,0.000000
1009017,48.000000,-8.000000,0.000000
1009018,56.000000,-8.000000,0.000000
1009019,64.000000,-8.000000,0.000000
1009020,72.000000,-8.000000,0.000000
1009021,80.000000,-8.000000,0.000000
1010001,-80.000000,0.000000,0.000000
1010002,-72.000000,0.000000,0.000000
1010003,-64.000000,0.000000,0.000000
1010004,-56.000000,0.000000,0.000000
1010005,-48.000000,0.000000,0.000000
1010006,-40.000000,0.000000,0.000000
1010007,-32.000000,0.000000,0.000000
1010008,-24.000000,0.000000,0.000000
1010014,24.000000,0.000000,0.000000
1010015,32.000000,0.000000,0.000000
1010016,40.000000,0.000000,0.000000
1010017,48.000000,0.000000,0.000000
1010018,56.000000,0.000000,0.000000
1010019,64.000000,0.000000,0.000000
1010020,72.000000,0.000000,0.000000
1010021,80.000000,0.000000,0.000000
1011001,-80.000000,8.000000,0.000000
1011002,-72.000000,8.000000,0.000000
1011003,-64.000000,8.000000,0.000000
1011004,-56.000000,8.000000,0.000000
1011005,-48.000000,8.000000,0.000000
1011006,-40.000000,8.000000,0.000000
1011007,-32.000000,8.000000,0.000000
1011008,-24.000000,8.000000,0.000000
1011014,24.000000,8.000000,0.000000
1011015,32.000000,8.000000,0.000000
1011016,40.000000,8.000000,0.000000
1011017,48.000000,8.000000,0.000000
1011018,56.000000,8.000000,0.000000
1011019,64.000000,8.000000,0.000000
1011020,72.000000,8.000000,0.000000
1011021,80.000000,8.000000,0.000000
1012001,-80.000000,16.000000,0.000000
1012002,-72.000000,16.000000,0.000000
1012003,-64.000000,16.000000,0.000000
1012004,-56.000000,16.000000,0.000000
1012005,-48.000000,16.000000,0.000000
1012006,-40.000000,16.000000,0.000000
1012007,-32.000000,16.000000,0.000000
1012008,-24.000000,16.000000,0.000000
1012009,-16.000000,16.000000,0.000000
1012013,16.000000,16.000000,0.000000
1012014,24.000000,16.000000,0.000000
1012015,32.000000,16.000000,0.000000
1012016,40.000000,16.000000,0.000000
1012017,48.000000,16.000000,0.000000
1012018,56.000000,16.000000,0.000000
1012019,64.000000,16.000000,0.000000
1012020,72.000000,16.000000,0.000000
1012021,80.000000,16.000000,0.000000
1013001,-80.000000,24.000000,0.000000
1013002,-72.000000,24.000000,0.000000
1013003,-64.000000,24.000000,0.000000
1013004,-56.000000,24.000000,0.000000
1013005,-48.000000,24.000000,0.000000
1013006,-40.000000,24.000000,0.000000
1013007,-32.000000,24.000000,0.000000
1013008,-24.000000,24.000000,0.000000
1013009,-16.000000,24.000000,0.000000
1013010,-8.000000,24.000000,0.000000
1013011,0.000000,24.000000,0.000000
1013012,8.000000,24.000000,0.000000
1013013,16.000000,24.000000,0.000000
1013014,24.000000,24.000000,0.000000
1013015,32.000000,24.000000,0.000000
1013016,40.000000,24.000000,0.000000
1013017,48.000000,24.000000,0.000000
1013018,56.000000,24.000000,0.000000
1013019,64.000000,24.000000,0.000000
1013020,72.000000,24.000000,0.000000
1013021,80.000000,24.000000,0.000000
1014001,-80.000000,32.000000,0.000000
1014002,-72.000000,32.000000,0.000000
1014003,-64.000000,32.000000,0.000000
1014004,-56.000000,32.000000,0.000000
1014005,-48.000000,32.000000,0.000000
1014006,-40.000000,32.000000,0.000000
1014007,-32.000000,32.000000,0.000000
1014008,-24.000000,32.000000,0.000000
1014009,-16.000000,32.000000,0.000000
1014010,-8.000000,32.000000,0.000000
1014011,0.000000,32.000000,0.000000
1014012,8.000000,32.000000,0.000000
1014013,16.000000,32.000000,0.000000
1014014,24.000000,32.000000,0.000000
1014015,32.000000,32.000000,0.000000
1014016,40.000000,32.000000,0.000000
1014017,48.000000,32.000000,0.000000
1014018,56.000000,32.000000,0.000000
1014019,64.000000,32.000000,0.000000
1014020,72.000000,32.000000,0.000000
1014021,80.000000,32.000000,0.000000
1015001,-80.000000,40.000000,0.000000
1015002,-72.000000,40.000000,0.000000
1015003,-64.000000,40.000000,0.000000
1015004,-56.000000,40.000000,0.000000
1015005,-48.000000,40.000000,0.000000
1015006,-40.000000,40.000000,0.000000
1015007,-32.000000,40.000000,0.000000
1015008,-24.000000,40.000000,0.000000
1015009,-16.000000,40.000000,0.000000
1015010,-8.000000,40.000000,0.000000
1015011,0.000000,40.000000,0.000000
1015012,8.000000,40.000000,0.000000
1015013,16.000000,40.000000,0.000000
1015014,24.000000,40.000000,0.000000
1015015,32.000000,40.000000,0.000000
1015016,40.000000,40.000000,0.000000
1015017,48.000000,40.000000,0.000000
1015018,56.000000,40.000000,0.000000
1015019,64.000000,40.000000,0.000000
1015020,72.000000,40.000000,0.000000
1015021,80.000000,40.000000,0.000000
1016001,-80.000000,48.000000,0.000000
1016002,-72.000000,48.000000,0.000000
1016003,-64.000000,48.000000,0.000000
1016004,-56.000000,48.000000,0.000000
1016005,-48.000000,48.000000,0.000000
1016006,-40.000000,48.000000,0.000000
1016007,-32.000000,48.000000,0.000000
1016008,-24.000000,48.000000,0.000000
1016009,-16.000000,48.000000,0.000000
1016010,-8.000000,48.000000,0.000000
1016011,0.000000,48.000000,0.000000
1016012,8.000000,48.000000,0.000000
1016013,16.000000,48.000000,0.000000
1016014,24.000000,48.000000,0.000000
1016015,32.000000,48.000000,0.000000
1016016,40.000000,48.000000,0.000000
1016017,48.000000,48.000000,0.000000
1016018,56.000000,48.000000,0.000000
1016019,64.000000,48.000000,0.000000
1016020,72.000000,48.000000,0.000000
1016021,80.000000,48.000000,0.000000
1017001,-80.000000,56.000000,0.000000
1017002,-72.000000,56.000000,0.000000
1017003,-64.000000,56.000000,0.000000
1017004,-56.000000,56.000000,0.000000
1017005,-48.000000,56.000000,0.000000
1017006,-40.000000,56.000000,0.000000
1017007,-32.000000,56.000000,0.000000
1017008,-24.000000,56.000000,0.000000
1017009,-16.000000,56.000000,0.000000
1017010,-8.000000,56.000000,0.000000
1017011,0.000000,56.000000,0.000000
1017012,8.000000,56.000000,0.000000
1017013,16.000000,56.000000,0.000000
1017014,24.000000,56.000000,0.000000
1017015,32.000000,56.000000,0.000000
1017016,40.000000,56.000000,0.000000
1017017,48.000000,56.000000,0.000000
1017018,56.000000,56.000000,0.000000
1017019,64.000000,56.000000,0.000000
1017020,72.000000,56.000000,0.000000
1017021,80.000000,56.000000,0.000000
1018001,-80.000000,64.000000,0.000000
1018002,-72.000000,64.000000,0.000000
1018003,-64.000000,64.000000,0.000000
1018004,-56.000000,64.000000,0.000000
1018005,-48.000000,64.000000,0.000000
1018006,-40.000000,64.000000,0.000000
1018007,-32.000000,64.000000,0.000000
1018008,-24.000000,64.000000,0.000000
1018009,-16.000000,64.000000,0.000000
1018010,-8.000000,64.000000,0.000000
1018011,0.000000,64.000000,0.000000
1018012,8.000000,64.000000,0.000000
1018013,16.000000,64.000000,0.000000
1018014,24.000000,64.000000,0.000000
1018015,32.000000,64.000000,0.000000
1018016,40.000000,64.000000,0.000000
1018017,48.000000,64.000000,0.000000
1018018,56.000000,64.000000,0.000000
1018019,64.000000,64.000000,0.000000
1018020,72.000000,64.000000,0.000000
1018021,80.000000,64.000000,0.000000
1019001,-80.000000,72.000000,0.000000
1019002,-72.000000,72.000000,0.000000
1019003,-64.000000,72.000000,0.000000
1019004,-56.000000,72.000000,0.000000
1019005,-48.000000,72.000000,0.000000
1019006,-40.000000,72.000000,0.000000
1019007,-32.000000,72.000000,0.000000
1019008,-24.000000,72.000000,0.000000
1019009,-16.000000,72.000000,0.000000
1019010,-8.000000,72.000000,0.000000
1019011,0.000000,72.000000,0.000000
1019012,8.000000,72.000000,0.000000
1019013,16.000000,72.000000,0.000000
1019014,24.000000,72.000000,0.000000
1019015,32.000000,72.000000,0.000000
1019016,40.000000,72.000000,0.000000
1019017,48.000000,72.000000,0.000000
1019018,56.000000,72.000000,0.000000
1019019,64.000000,72.000000,0.000000
1019020,72.000000,72.000000,0.000000
1019021,80.000000,72.000000,0.000000
1020001,-80.000000,80.000000,0.000000
1020002,-72.000000,80.000000,0.000000
1020003,-64.000000,80.000000,0.000000
1020004,-56.000000,80.000000,0.000000
1020005,-48.000000,80.000000,0.000000
1020006,-40.000000,80.000000,0.000000
1020007,-32.000000,80.000000,0.000000
1020008,-24.000000,80.000000,0.000000
1020009,-16.000000,80.000000,0.000000
1020010,-8.000000,80.000000,0.000000
1020011,0.000000,80.000000,0.000000
1020012,8.000000,80.000000,0.000000
1020013,16.000000,80.000000,0.000000
1020014,24.000000,80.000000,0.000000
1020015,32.000000,80.000000,0.000000
1020016,40.000000,80.000000,0.000000
1020017,48.000000,80.000000,0.000000
1020018,56.000000,80.000000,0.000000
1020019,64.000000,80.000000,0.000000
1020020,72.000000,80.000000,0.000000
1020021,80.000000,80.000000,0.000000
2000001,-80.000000,-80.000000,2.687500
2000002,-72.000000,-80.000000,2.687500
2000003,-64.000000,-80.000000,2.687500
2000004,-56.000000,-80.000000,2.687500
2000005,-48.000000,-80.000000,2.687500
2000006,-40.000000,-80.000000,2.687500
2000007,-32.000000,-80.000000,2.687500
2000008,-24.000000,-80.000000,2.687500
2000009,-16.000000,-80.000000,2.687500
2000010,-8.000000,-80.000000,2.687500
2000011,0.000000,-80.000000,2.687500
2000012,8.000000,-80.000000,2.687500
2000013,16.000000,-80.000000,2.687500
2000014,24.000000,-80.000000,2.687500
2000015,32.000000,-80.000000,2.687500
2000016,40.000000,-80.000000,2.687500
2000017,48.000000,-80.000000,2.687500
2000018,56.000000,-80.000000,2.687500
2000019,64.000000,-80.000000,2.687500
2000020,72.000000,-80.000000,2.687500
2000021,80.000000,-80.000000,2.687500
2001001,-80.000000,-72.000000,2.687500
2001002,-72.000000,-72.000000,2.687500
2001003,-64.000000,-72.000000,2.687500
2001004,-56.000000,-72.000000,2.687500
2001005,-48.000000,-72.000000,2.687500
2001006,-40.000000,-72.000000,2.687500
2001007,-32.000000,-72.000000,2.687500
2001008,-24.000000,-72.000000,2.687500
2001009,-16.000000,-72.000000,2.687500
2001010,-8.000000,-72.000000,2.687500
2001011,0.000000,-72.000000,2.687500
2001012,8.000000,-72.000000,2.687500
2001013,16.000000,-72.000000,2.687500
2001014,24.000000,-72.000000,2.687500
2001015,32.000000,-72.000000,2.687500
2001016,40.000000,-72.000000,2.687500
2001017,48.000000,-72.000000,2.687500
2001018,56.000000,-72.000000,2.687500
2001019,64.000000,-72.000000,2.687500
2001020,72.000000,-72.000000,2.687500
2001021,80.000000,-72.000000,2.687500
2002001,-80.000000,-64.000000,2.687500
2002002,-72.000000,-64.000000,2.687500
2002003,-64.000000,-64.000000,2.687500
2002004,-56.000000,-64.000000,2.687500
2002005,-48.000000,-64.000000,2.687500
2002006,-40.000000,-64.000000,2.687500
2002007,-32.000000,-64.000000,2.687500
2002008,-24.000000,-64.000000,2.687500
2002009,-16.000000,-64.000000,2.687500
2002010,-8.000000,-64.000000,2.687500
2002011,0.000000,-64.000000,2.687500
2002012,8.000000,-64.000000,2.687500
2002013,16.000000,-64.000000,2.687500
2002014,24.000000,-64.000000,2.687500
2002015,32.000000,-64.000000,2.687500
2002016,40.000000,-64.000000,2.687500
2002017,48.000000,-64.000000,2.687500
2002018,56.000000,-64.000000,2.687500
2002019,64.000000,-64.000000,2.687500
2002020,72.000000,-64.000000,2.687500
2002021,80.000000,-64.000000,2.687500
2003001,-80.000000,-56.000000,2.687500
2003002,-72.000000,-56.000000,2.687500
2003003,-64.000000,-56.000000,2.687500
2003004,-56.000000,-56.000000,2.687500
2003005,-48.000000,-56.000000,2.687500
2003006,-40.000000,-56.000000,2.687500
2003007,-32.000000,-56.000000,2.687500
2003008,-24.000000,-56.000000,2.687500
2003009,-16.000000,-56.000000,2.687500
2003010,-8.000000,-56.000000,2.687500
2003011,0.000000,-56.000000,2.687500
2003012,8.000000,-56.000000,2.687500
2003013,16.000000,-56.000000,2.687500
2003014,24.000000,-56.000000,2.687500
2003015,32.000000,-56.000000,2.687500
2003016,40.000000,-56.000000,2.687500
2003017,48.000000,-56.000000,2.687500
2003018,56.000000,-56.000000,2.687500
2003019,64.000000,-56.000000,2.687500
2003020,72.000000,-56.000000,2.687500
2003021,80.000000,-56.000000,2.687500
2004001,-80.000000,-48.000000,2.687500
2004002,-72.000000,-48.000000,2.687500
2004003,-64.000000,-48.000000,2.687500
2004004,-56.000000,-48.000000,2.687500
2004005,-48.000000,-48.000000,2.687500
2004006,-40.000000,-48.000000,2.687500
2004007,-32.000000,-48.000000,2.687500
2004008,-24.000000,-48.000000,2.687500
2004009,-16.000000,-48.000000,2.687500
2004010,-8.000000,-48.000000,2.687500
2004011,0.000000,-48.000000,2.687500
2004012,8.000000,-48.000000,2.687500
2004013,16.000000,-48.000000,2.687500
2004014,24.000000,-48.000000,2.687500
2004015,32.000000,-48.000000,2.687500
2004016,40.000000,-48.000000,2.687500
2004017,48.000000,-48.000000,2.687500
2004018,56.000000,-48.000000,2.687500
2004019,64.000000,-48.000000,2.687500
2004020,72.000000,-48.000000,2.687500
2004021,80.000000,-48.000000,2.687500
2005001,-80.000000,-40.000000,2.687500
2005002,-72.000000,-40.000000,2.687500
2005003,-64.000000,-40.000000,2.687500
2005004,-56.000000,-40.000000,2.687500
2005005,-48.000000,-40.000000,2.687500
2005006,-40.000000,-40.000000,2.687500
2005007,-32.000000,-40.000000,2.687500
2005008,-24.000000,-40.000000,2.687500
2005009,-16.000000,-40.000000,2.687500
2005010,-8.000000,-40.000000,2.687500
2005011,0.000000,-40.000000,2.687500
2005012,8.000000,-40.000000,2.687500
2005013,16.000000,-40.000000,2.687500
2005014,24.000000,-40.000000,2.687500
2005015,32.000000,-40.000000,2.687500
2005016,40.000000,-40.000000,2.687500
2005017,48.000000,-40.000000,2.687500
2005018,56.000000,-40.000000,2.687500
2005019,64.000000,-40.000000,2.687500
2005020,72.000000,-40.000000,2.687500
2005021,80.000000,-40.000000,2.687500
2006001,-80.000000,-32.000000,2.687500
2006002,-72.000000,-32.000000,2.687500
2006003,-64.000000,-32.000000,2.687500
2006004,-56.000000,-32.000000,2.687500
2006005,-48.000000,-32.000000,2.687500
2006006,-40.000000,-32.000000,2.687500
2006007,-32.000000,-32.000000,2.687500
2006008,-24.000000,-32.000000,2.687500
2006009,-16.000000,-32.000000,2.687500
2006010,-8.000000,-32.000000,2.687500
2006011,0.000000,-32.000000,2.687500
2006012,8.000000,-32.000000,2.687500
2006013,16.000000,-32.000000,2.687500
2006014,24.000000,-32.000000,2.687500
2006015,32.000000,-32.000000,2.687500
2006016,40.000000,-32.000000,2.687500
2006017,48.000000,-32.000000,2.687500
2006018,56.000000,-32.000000,2.687500
2006019,64.000000,-32.000000,2.687500
2006020,72.000000,-32.000000,2.687500
2006021,80.000000,-32.000000,2.687500
2007001,-80.000000,-24.000000,2.687500
2007002,-72.000000,-24.000000,2.687500
2007003,-64.000000,-24.000000,2.687500
2007004,-56.000000,-24.000000,2.687500
2007005,-48.000000,-24.000000,2.687500
2007006,-40.000000,-24.000000,2.687500
2007007,-32.000000,-24.000000,2.687500
2007008,-24.000000,-24.000000,2.687500
2007009,-16.000000,-24.000000,2.687500
2007010,-8.000000,-24.000000,2.687500
2007011,0.000000,-24.000000,2.687500
2007012,8.000000,-24.000000,2.687500
2007013,16.000000,-24.000000,2.687500
2007014,24.000000,-24.000000,2.687500
2007015,32.000000,-24.000000,2.687500
2007016,40.000000,-24.000000,2.687500
2007017,48.000000,-24.000000,2.687500
2007018,56.000000,-24.000000,2.687500
2007019,64.000000,-24.000000,2.687500
2007020,72.000000,-24.000000,2.687500
2007021,80.000000,-24.000000,2.687500
2008001,-80.000000,-16.000000,2.687500
2008002,-72.000000,-16.000000,2.687500
2008003,-64.000000,-16.000000,2.687500
2008004,-56.000000,-16.000000,2.687500
2008005,-48.000000,-16.000000,2.687500
2008006,-40.000000,-16.000000,2.687500
2008007,-32.000000,-16.000000,2.687500
2008008,-24.000000,-16.000000,2.687500
2008009,-16.000000,-16.000000,2.687500
2008013,16.000000,-16.000000,2.687500
2008014,24.000000,-16.000000,2.687500
2008015,32.000000,-16.000000,2.687500
2008016,40.000000,-16.000000,2.687500
2008017,48.000000,-16.000000,2.687500
2008018,56.000000,-16.000000,2.687500
2008019,64.000000,-16.000000,2.687500
2008020,72.000000,-16.000000,2.687500
2008021,80.000000,-16.000000,2.687500
2009001,-80.000000,-8.000000,2.687500
2009002,-72.000000,-8.000000,2.687500
2009003,-64.000000,-8.000000,2.687500
2009004,-56.000000,-8.000000,2.687500
2009005,-48.000000,-8.000000,2.687500
2009006,-40.000000,-8.000000,2.687500
2009007,-32.000000,-8.000000,2.687500
2009008,-24.000000,-8.000000,2.687500
2009014,24.000000,-8.000000,2.687500
2009015,32.000000,-8.000000,2.687500
2009016,40.000000,-8.000000,2.687500
2009017,48.000000,-8.000000,2.687500
2009018,56.000000,-8.000000,2.687500
2009019,64.000000,-8.000000,2.687500
2009020,72.000000,-8.000000,2.687500
2009021,80.000000,-8.000000,2.687500
2010001,-80.000000,0.000000,2.687500
2010002,-72.000000,0.000000,2.687500
2010003,-64.000000,0.000000,2.687500
2010004,-56.000000,0.000000,2.687500
2010005,-48.000000,0.000000,2.687500
2010006,-40.000000,0.000000,2.687500
2010007,-32.000000,0.000000,2.687500
2010008,-24.000000,0.000000,2.687500
2010014,24.000000,0.000000,2.687500
2010015,32.000000,0.000000,2.687500
2010016,40.000000,0.000000,2.687500
2010017,48.000000,0.000000,2.687500
2010018,56.000000,0.000000,2.687500
2010019,64.000000,0.000000,2.687500
2010020,72.000000,0.000000,2.687500
2010021,80.000000,0.000000,2.687500
2011001,-80.000000,8.000000,2.687500
2011002,-72.000000,8.000000,2.687500
2011003,-64.000000,8.000000,2.687500
2011004,-56.000000,8.000000,2.687500
2011005,-48.000000,8.000000,2.687500
2011006,-40.000000,8.000000,2.687500
2011007,-32.000000,8.000000,2.687500
2011008,-24.000000,8.000000,2.687500
2011014,24.000000,8.000000,2.687500
2011015,32.000000,8.000000,2.687500
2011016,40.000000,8.000000,2.687500
2011017,48.000000,8.000000,2.687500
2011018,56.000000,8.000000,2.687500
2011019,64.000000,8.000000,2.687500
2011020,72.000000,8.000000,2.687500
2011021,80.000000,8.000000,2.687500
2012001,-80.000000,16.000000,2.687500
2012002,-72.000000,16.000000,2.687500
2012003,-64.000000,16.000000,2.687500
2012004,-56.000000,16.000000,2.687500
2012005,-48.000000,16.000000,2.687500
2012006,-40.000000,16.000000,2.687500
2012007,-32.000000,16.000000,2.687500
2012008,-24.000000,16.000000,2.687500
2012009,-16.000000,16.000000,2.687500
2012013,16.000000,16.000000,2.687500
2012014,24.000000,16.000000,2.687500
2012015,32.000000,16.000000,2.687500
2012016,40.000000,16.000000,2.687500
2012017,48.000000,16.000000,2.687500
2012018,56.000000,16.000000,2.687500
2012019,64.000000,16.000000,2.687500
2012020,72.000000,16.000000,2.687500
2012021,80.000000,16.000000,2.687500
2013001,-80.000000,24.000000,2.687500
2013002,-72.000000,24.000000,2.687500
2013003,-64.000000,24.000000,2.687500
2013004,-56.000000,24.000000,2.687500
2013005,-48.000000,24.000000,2.687500
2013006,-40.000000,24.000000,2.687500
2013007,-32.000000,24.000000,2.687500
2013008,-24.000000,24.000000,2.687500
2013009,-16.000000,24.000000,2.687500
2013010,-8.000000,24.000000,2.687500
2013011,0.000000,24.000000,2.687500
2013012,8.000000,24.000000,2.687500
2013013,16.000000,24.000000,2.687500
2013014,24.000000,24.000000,2.687500
2013015,32.000000,24.000000,2.687500
2013016,40.000000,24.000000,2.687500
2013017,48.000000,24.000000,2.687500
2013018,56.000000,24.000000,2.687500
2013019,64.000000,24.000000,2.687500
2013020,72.000000,24.000000,2.687500
2013021,80.000000,24.000000,2.687500
2014001,-80.000000,32.000000,2.687500
2014002,-72.000000,32.000000,2.687500
2014003,-64.000000,32.000000,2.687500
2014004,-56.000000,32.000000,2.687500
2014005,-48.000000,32.000000,2.687500
2014006,-40.000000,32.000000,2.687500
2014007,-32.000000,32.000000,2.687500
2014008,-24.000000,32.000000,2.687500
2014009,-16.000000,32.000000,2.687500
2014010,-8.000000,32.000000,2.687500
2014011,0.000000,32.000000,2.687500
2014012,8.000000,32.000000,2.687500
2014013,16.000000,32.000000,2.687500
2014014,24.000000,32.000000,2.687500
2014015,32.000000,32.000000,2.687500
2014016,40.000000,32.000000,2.687500
2014017,48.000000,32.000000,2.687500
2014018,56.000000,32.000000,2.687500
2014019,64.000000,32.000000,2.687500
2014020,72.000000,32.000000,2.687500
2014021,80.000000,32.000000,2.687500
2015001,-80.000000,40.000000,2.687500
2015002,-72.000000,40.000000,2.687500
2015003,-64.000000,40.000000,2.687500
2015004,-56.000000,40.000000,2.687500
2015005,-48.000000,40.000000,2.687500
2015006,-40.000000,40.000000,2.687500
2015007,-32.000000,40.000000,2.687500
2015008,-24.000000,40.000000,2.687500
2015009,-16.000000,40.000000,2.687500
2015010,-8.000000,40.000000,2.687500
2015011,0.000000,40.000000,2.687500
2015012,8.000000,40.000000,2.687500
2015013,16.000000,40.000000,2.687500
2015014,24.000000,40.000000,2.687500
2015015,32.000000,40.000000,2.687500
2015016,40.000000,40.000000,2.687500
2015017,48.000000,40.000000,2.687500
2015018,56.000000,40.000000,2.687500
2015019,64.000000,40.000000,2.687500
2015020,72.000000,40.000000,2.687500
2015021,80.000000,40.000000,2.687500
2016001,-80.000000,48.000000,2.687500
2016002,-72.000000,48.000000,2.687500
2016003,-64.000000,48.000000,2.687500
2016004,-56.000000,48.000000,2.687500
2016005,-48.000000,48.000000,2.687500
2016006,-40.000000,48.000000,2.687500
2016007,-32.000000,48.000000,2.687500
2016008,-24.000000,48.000000,2.687500
2016009,-16.000000,48.000000,2.687500
2016010,-8.000000,48.000000,2.687500
2016011,0.000000,48.000000,2.687500
2016012,8.000000,48.000000,2.687500
2016013,16.000000,48.000000,2.687500
2016014,24.000000,48.000000,2.687500
2016015,32.000000,48.000000,2.687500
2016016,40.000000,48.000000,2.687500
2016017,48.000000,48.000000,2.687500
2016018,56.000000,48.000000,2.687500
2016019,64.000000,48.000000,2.687500
2016020,72.000000,48.000000,2.687500
2016021,80.000000,48.000000,2.687500
2017001,-80.000000,56.000000,2.687500
2017002,-72.000000,56.000000,2.687500
2017003,-64.000000,56.000000,2.687500
2017004,-56.000000,56.000000,2.687500
2017005,-48.000000,56.000000,2.687500
2017006,-40.000000,56.000000,2.687500
2017007,-32.000000,56.000000,2.687500
2017008,-24.000000,56.000000,2.687500
2017009,-16.000000,56.000000,2.687500
2017010,-8.000000,56.000000,2.687500
2017011,0.000000,56.000000,2.687500
2017012,8.000000,56.000000,2.687500
2017013,16.000000,56.000000,2.687500
2017014,24.000000,56.000000,2.687500
2017015,32.000000,56.000000,2.687500
2017016,40.000000,56.000000,2.687500
2017017,48.000000,56.000000,2.687500
2017018,56.000000,56.000000,2.687500
2017019,64.000000,56.000000,2.687500
2017020,72.000000,56.000000,2.687500
2017021,80.000000,56.000000,2.687500
2018001,-80.000000,64.000000,2.687500
2018002,-72.000000,64.000000,2.687500
2018003,-64.000000,64.000000,2.687500
2018004,-56.000000,64.000000,2.687500
2018005,-48.000000,64.000000,2.687500
2018006,-40.000000,64.000000,2.687500
2018007,-32.000000,64.000000,2.687500
2018008,-24.000000,64.000000,2.687500
2018009,-16.000000,64.000000,2.687500
2018010,-8.000000,64.000000,2.687500
2018011,0.000000,64.000000,2.687500
2018012,8.000000,64.000000,2.687500
2018013,16.000000,64.000000,2.687500
2018014,24.000000,64.000000,2.687500
2018015,32.000000,64.000000,2.687500
2018016,40.000000,64.000000,2.687500
2018017,48.000000,64.000000,2.687500
2018018,56.000000,64.000000,2.687500
2018019,64.000000,64.000000,2.687500
2018020,72.000000,64.000000,2.687500
2018021,80.000000,64.000000,2.687500
2019001,-80.000000,72.000000,2.687500
2019002,-72.000000,72.000000,2.687500
2019003,-64.000000,72.000000,2.687500
2019004,-56.000000,72.000000,2.687500
2019005,-48.000000,72.000000,2.687500
2019006,-40.000000,72.000000,2.687500
2019007,-32.000000,72.000000,2.687500
2019008,-24.000000,72.000000,2.687500
2019009,-16.000000,72.000000,2.687500
2019010,-8.000000,72.000000,2.687500
2019011,0.000000,72.000000,2.687500
2019012,8.000000,72.000000,2.687500
2019013,16.000000,72.000000,2.687500
2019014,24.000000,72.000000,2.687500
2019015,32.000000,72.000000,2.687500
2019016,40.000000,72.000000,2.687500
2019017,48.000000,72.000000,2.687500
2019018,56.000000,72.000000,2.687500
2019019,64.000000,72.000000,2.687500
2019020,72.000000,72.000000,2.687500
2019021,80.000000,72.000000,2.687500
2020001,-80.000000,80.000000,2.687500
2020002,-72.000000,80.000000,2.687500
2020003,-64.000000,80.000000,2.687500
2020004,-56.000000,80.000000,2.687500
2020005,-48.000000,80.000000,2.687500
2020006,-40.000000,80.000000,2.687500
2020007,-32.000000,80.000000,2.687500
2020008,-24.000000,80.000000,2.687500
2020009,-16.000000,80.000000,2.687500
2020010,-8.000000,80.000000,2.687500
2020011,0.000000,80.000000,2.687500
2020012,8.000000,80.000000,2.687500
2020013,16.000000,80.000000,2.687500
2020014,24.000000,80.000000,2.687500
2020015,32.000000,80.000000,2.687500
2020016,40.000000,80.000000,2.687500
2020017,48.000000,80.000000,2.687500
2020018,56.000000,80.000000,2.687500
2020019,64.000000,80.000000,2.687500
2020020,72.000000,80.000000,2.687500
2020021,80.000000,80.000000,2.687500
3000001,-80.000000,-80.000000,5.375000
3000002,-72.000000,-80.000000,5.375000
3000003,-64.000000,-80.000000,5.375000
3000004,-56.000000,-80.000000,5.375000
3000005,-48.000000,-80.000000,5.375000
3000006,-40.000000,-80.000000,5.375000
3000007,-32.000000,-80.000000,5.375000
3000008,-24.000000,-80.000000,5.375000
3000009,-16.000000,-80.000000,5.375000
3000010,-8.000000,-80.000000,5.375000
3000011,0.000000,-80.000000,5.375000
3000012,8.000000,-80.000000,5.375000
3000013,16.000000,-80.000000,5.375000
3000014,24.000000,-80.000000,5.375000
3000015,32.000000,-80.000000,5.375000
3000016,40.000000,-80.000000,5.375000
3000017,48.000000,-80.000000,5.375000
3000018,56.000000,-80.000000,5.375000
3000019,64.000000,-80.000000,5.375000
3000020,72.000000,-80.000000,5.375000
3000021,80.000000,-80.000000,5.375000
3001001,-80.000000,-72.000000,5.375000
3001002,-72.000000,-72.000000,5.375000
3001003,-64.000000,-72.000000,5.375000
3001004,-56.000000,-72.000000,5.375000
3001005,-48.000000,-72.000000,5.375000
3001006,-40.000000,-72.000000,5.375000
3001007,-32.000000,-72.000000,5.375000
3001008,-24.000000,-72.000000,5.375000
3001009,-16.000000,-72.000000,5.375000
3001010,-8.000000,-72.000000,5.375000
3001011,0.000000,-72.000000,5.375000
3001012,8.000000,-72.000000,5.375000
3001013,16.000000,-72.000000,5.375000
3001014,24.000000,-72.000000,5.375000
3001015,32.000000,-72.000000,5.375000
3001016,40.000000,-72.000000,5.375000
3001017,48.000000,-72.000000,5.375000
3001018,56.000000,-72.000000,5.375000
3001019,64.000000,-72.000000,5.375000
3001020,72.000000,-72.000000,5.375000
3001021,80.000000,-72.000000,5.375000
3002001,-80.000000,-64.000000,5.375000
3002002,-72.000000,-64.000000,5.375000
3002003,-64.000000,-64.000000,5.375000
3002004,-56.000000,-64.000000,5.375000
3002005,-48.000000,-64.000000,5.375000
3002006,-40.000000,-64.000000,5.375000
3002007,-32.000000,-64.000000,5.375000
3002008,-24.000000,-64.000000,5.375000
3002009,-16.000000,-64.000000,5.375000
3002010,-8.000000,-64.000000,5.375000
3002011,0.000000,-64.000000,5.375000
3002012,8.000000,-64.000000,5.375000
3002013,16.000000,-64.000000,5.375000
3002014,24.000000,-64.000000,5.375000
3002015,32.000000,-64.000000,5.375000
3002016,40.000000,-64.000000,5.375000
3002017,48.000000,-64.000000,5.375000
3002018,56.000000,-64.000000,5.375000
3002019,64.000000,-64.000000,5.375000
3002020,72.000000,-64.000000,5.375000
3002021,80.000000,-64.000000,5.375000
3003001,-80.000000,-56.000000,5.375000
3003002,-72.000000,-56.000000,5.375000
3003003,-64.000000,-56.000000,5.375000
3003004,-56.000000,-56.000000,5.375000
3003005,-48.000000,-56.000000,5.375000
3003006,-40.000000,-56.000000,5.375000
3003007,-32.000000,-56.000000,5.375000
3003008,-24.000000,-56.000000,5.375000
3003009,-16.000000,-56.000000,5.375000
3003010,-8.000000,-56.000000,5.375000
3003011,0.000000,-56.000000,5.375000
3003012,8.000000,-56.000000,5.375000
3003013,16.000000,-56.000000,5.375000
3003014,24.000000,-56.000000,5.375000
3003015,32.000000,-56.000000,5.375000
3003016,40.000000,-56.000000,5.375000
3003017,48.000000,-56.000000,5.375000
3003018,56.000000,-56.000000,5.375000
3003019,64.000000,-56.000000,5.375000
3003020,72.000000,-56.000000,5.375000
3003021,80.000000,-56.000000,5.375000
3004001,-80.000000,-48.000000,5.375000
3004002,-72.000000,-48.000000,5.375000
3004003,-64.000000,-48.000000,5.375000
3004004,-56.000000,-48.000000,5.375000
3004005,-48.000000,-48.000000,5.375000
3004006,-40.000000,-48.000000,5.375000
3004007,-32.000000,-48.000000,5.375000
3004008,-24.000000,-48.000000,5.375000
3004009,-16.000000,-48.000000,5.375000
3004010,-8.000000,-48.000000,5.375000
3004011,0.000000,-48.000000,5.375000
3004012,8.000000,-48.000000,5.375000
3004013,16.000000,-48.000000,5.375000
3004014,24.000000,-48.000000,5.375000
3004015,32.000000,-48.000000,5.375000
3004016,40.000000,-48.000000,5.375000
3004017,48.000000,-48.000000,5.375000
3004018,56.000000,-48.000000,5.375000
3004019,64.000000,-48.000000,5.375000
3004020,72.000000,-48.000000,5.375000
3004021,80.000000,-48.000000,5.375000
3005001,-80.000000,-40.000000,5.375000
3005002,-72.000000,-40.000000,5.375000
3005003,-64.000000,-40.000000,5.375000
3005004,-56.000000,-40.000000,5.375000
3005005,-48.000000,-40.000000,5.375000
3005006,-40.000000,-40.000000,5.375000
3005007,-32.000000,-40.000000,5.375000
3005008,-24.000000,-40.000000,5.375000
3005009,-16.000000,-40.000000,5.375000
3005010,-8.000000,-40.000000,5.375000
3005011,0.000000,-40.000000,5.375000
3005012,8.000000,-40.000000,5.375000
3005013,16.000000,-40.000000,5.375000
3005014,24.000000,-40.000000,5.375000
3005015,32.000000,-40.000000,5.375000
3005016,40.000000,-40.000000,5.375000
3005017,48.000000,-40.000000,5.375000
3005018,56.000000,-40.000000,5.375000
3005019,64.000000,-40.000000,5.375000
3005020,72.000000,-40.000000,5.375000
3005021,80.000000,-40.000000,5.375000
3006001,-80.000000,-32.000000,5.375000
3006002,-72.000000,-32.000000,5.375000
3006003,-64.000000,-32.000000,5.375000
3006004,-56.000000,-32.000000,5.375000
3006005,-48.000000,-32.000000,5.375000
3006006,-40.000000,-32.000000,5.375000
3006007,-32.000000,-32.000000,5.375000
3006008,-24.000000,-32.000000,5.375000
3006009,-16.000000,-32.000000,5.375000
3006010,-8.000000,-32.000000,5.375000
3006011,0.000000,-32.000000,5.375000
3006012,8.000000,-32.000000,5.375000
3006013,16.000000,-32.000000,5.375000
3006014,24.000000,-32.000000,5.375000
3006015,32.000000,-32.000000,5.375000
3006016,40.000000,-32.000000,5.375000
3006017,48.000000,-32.000000,5.375000
3006018,56.000000,-32.000000,5.375000
3006019,64.000000,-32.000000,5.375000
3006020,72.000000,-32.000000,5.375000
3006021,80.000000,-32.000000,5.375000
3007001,-80.000000,-24.000000,5.375000
3007002,-72.000000,-24.000000,5.375000
3007003,-64.000000,-24.000000,5.375000
3007004,-56.000000,-24.000000,5.375000
3007005,-48.000000,-24.000000,5.375000
3007006,-40.000000,-24.000000,5.375000
3007007,-32.000000,-24.000000,5.375000
3007008,-24.000000,-24.000000,5.375000
3007009,-16.000000,-24.000000,5.375000
3007010,-8.000000,-24.000000,5.375000
3007011,0.000000,-24.000000,5.375000
3007012,8.000000,-24.000000,5.375000
3007013,16.000000,-24.000000,5.375000
3007014,24.000000,-24.000000,5.375000
3007015,32.000000,-24.000000,5.375000
3007016,40.000000,-24.000000,5.375000
3007017,48.000000,-24.000000,5.375000
3007018,56.000000,-24.000000,5.375000
3007019,64.000000,-24.000000,5.375000
3007020,72.000000,-24.000000,5.375000
3007021,80.000000,-24.000000,5.375000
3008001,-80.000000,-16.000000,5.375000
3008002,-72.000000,-16.000000,5.375000
3008003,-64.000000,-16.000000,5.375000
3008004,-56.000000,-16.000000,5.375000
3008005,-48.000000,-16.000000,5.375000
3008006,-40.000000,-16.000000,5.375000
3008007,-32.000000,-16.000000,5.375000
3008008,-24.000000,-16.000000,5.375000
3008009,-16.000000,-16.000000,5.375000
3008013,16.000000,-16.000000,5.375000
3008014,24.000000,-16.000000,5.375000
3008015,32.000000,-16.000000,5.375000
3008016,40.000000,-16.000000,5.375000
3008017,48.000000,-16.000000,5.375000
3008018,56.000000,-16.000000,5.375000
3008019,64.000000,-16.000000,5.375000
3008020,72.000000,-16.000000,5.375000
3008021,80.000000,-16.000000,5.375000
3009001,-80.000000,-8.000000,5.375000
3009002,-72.000000,-8.000000,5.375000
3009003,-64.000000,-8.000000,5.375000
3009004,-56.000000,-8.000000,5.375000
3009005,-48.000000,-8.000000,5.375000
3009006,-40.000000,-8.000000,5.375000
3009007,-32.000000,-8.000000,5.375000
3009008,-24.000000,-8.000000,5.375000
3009014,24.000000,-8.000000,5.375000
3009015,32.000000,-8.000000,5.375000
3009016,40.000000,-8.000000,5.375000
3009017,48.000000,-8.000000,5.375000
3009018,56.000000,-8.000000,5.375000
3009019,64.000000,-8.000000,5.375000
3009020,72.000000,-8.000000,5.375000
3009021,80.000000,-8.000000,5.375000
3010001,-80.000000,0.000000,5.375000
3010002,-72.000000,0.000000,5.375000
3010003,-64.000000,0.000000,5.375000
3010004,-56.000000,0.000000,5.375000
3010005,-48.000000,0.000000,5.375000
3010006,-40.000000,0.000000,5.375000
3010007,-32.000000,0.000000,5.375000
3010008,-24.000000,0.000000,5.375000
3010014,24.000000,0.000000,5.375000
3010015,32.000000,0.000000,5.375000
3010016,40.000000,0.000000,5.375000
3010017,48.000000,0.000000,5.375000
3010018,56.000000,0.000000,5.375000
3010019,64.000000,0.000000,5.375000
3010020,72.000000,0.000000,5.375000
3010021,80.000000,0.000000,5.375000
3011001,-80.000000,8.000000,5.375000
3011002,-72.000000,8.000000,5.375000
3011003,-64.000000,8.000000,5.375000
3011004,-56.000000,8.000000,5.375000
3011005,-48.000000,8.000000,5.375000
3011006,-40.000000,8.000000,5.375000
3011007,-32.000000,8.000000,5.375000
3011008,-24.000000,8.000000,5.375000
3011014,24.000000,8.000000,5.375000
3011015,32.000000,8.000000,5.375000
3011016,40.000000,8.000000,5.375000
3011017,48.000000,8.000000,5.375000
3011018,56.000000,8.000000,5.375000
3011019,64.000000,8.000000,5.375000
3011020,72.000000,8.000000,5.375000
3011021,80.000000,8.000000,5.375000
3012001,-80.000000,16.000000,5.375000
3012002,-72.000000,16.000000,5.375000
3012003,-64.000000,16.000000,5.375000
3012004,-56.000000,16.000000,5.375000
3012005,-48.000000,16.000000,5.375000
3012006,-40.000000,16.000000,5.375000
3012007,-32.000000,16.000000,5.375000
3012008,-24.000000,16.000000,5.375000
3012009,-16.000000,16.000000,5.375000
3012013,16.000000,16.000000,5.375000
3012014,24.000000,16.000000,5.375000
3012015,32.000000,16.000000,5.375000
3012016,40.000000,16.000000,5.375000
3012017,48.000000,16.000000,5.375000
3012018,56.000000,16.000000,5.375000
3012019,64.000000,16.000000,5.375000
3012020,72.000000,16.000000,5.375000
3012021,80.000000,16.000000,5.375000
3013001,-80.000000,24.000000,5.375000
3013002,-72.000000,24.000000,5.375000
3013003,-64.000000,24.000000,5.375000
3013004,-56.000000,24.000000,5.375000
3013005,-48.000000,24.000000,5.375000
3013006,-40.000000,24.000000,5.375000
3013007,-32.000000,24.000000,5.375000
3013008,-24.000000,24.000000,5.375000
3013009,-16.000000,24.000000,5.375000
3013010,-8.000000,24.000000,5.375000
3013011,0.000000,24.000000,5.375000
3013012,8.000000,24.000000,5.375000
3013013,16.000000,24.000000,5.375000
3013014,24.000000,24.000000,5.375000
3013015,32.000000,24.000000,5.375000
3013016,40.000000,24.000000,5.375000
3013017,48.000000,24.000000,5.375000
3013018,56.000000,24.000000,5.375000
3013019,64.000000,24.000000,5.375000
3013020,72.000000,24.000000,5.375000
3013021,80.000000,24.000000,5.375000
3014001,-80.000000,32.000000,5.375000
3014002,-72.000000,32.000000,5.375000
3014003,-64.000000,32.000000,5.375000
3014004,-56.000000,32.000000,5.375000
3014005,-48.000000,32.000000,5.375000
3014006,-40.000000,32.000000,5.375000
3014007,-32.000000,32.000000,5.375000
3014008,-24.000000,32.000000,5.375000
3014009,-16.000000,32.000000,5.375000
3014010,-8.000000,32.000000,5.375000
3014011,0.000000,32.000000,5.375000
3014012,8.000000,32.000000,5.375000
3014013,16.000000,32.000000,5.375000
3014014,24.000000,32.000000,5.375000
3014015,32.000000,32.000000,5.375000
3014016,40.000000,32.000000,5.375000
3014017,48.000000,32.000000,5.375000
3014018,56.000000,32.000000,5.375000
3014019,64.000000,32.000000,5.375000
3014020,72.000000,32.000000,5.375000
3014021,80.000000,32.000000,5.375000
3015001,-80.000000,40.000000,5.375000
3015002,-72.000000,40.000000,5.375000
3015003,-64.000000,40.000000,5.375000
3015004,-56.000000,40.000000,5.375000
3015005,-48.000000,40.000000,5.375000
3015006,-40.000000,40.000000,5.375000
3015007,-32.000000,40.000000,5.375000
3015008,-24.000000,40.000000,5.375000
3015009,-16.000000,40.000000,5.375000
3015010,-8.000000,40.000000,5.375000
3015011,0.000000,40.000000,5.375000
3015012,8.000000,40.000000,5.375000
3015013,16.000000,40.000000,5.375000
3015014,24.000000,40.000000,5.375000
3015015,32.000000,40.000000,5.375000
3015016,40.000000,40.000000,5.375000
3015017,48.000000,40.000000,5.375000
3015018,56.000000,40.000000,5.375000
3015019,64.000000,40.000000,5.375000
3015020,72.000000,40.000000,5.375000
3015021,80.000000,40.000000,5.375000
3016001,-80.000000,48.000000,5.375000
3016002,-72.000000,48.000000,5.375000
3016003,-64.000000,48.000000,5.375000
3016004,-56.000000,48.000000,5.375000
3016005,-48.000000,48.000000,5.375000
3016006,-40.000000,48.000000,5.375000
3016007,-32.000000,48.000000,5.375000
3016008,-24.000000,48.000000,5.375000
3016009,-16.000000,48.000000,5.375000
3016010,-8.000000,48.000000,5.375000
3016011,0.000000,48.000000,5.375000
3016012,8.000000,48.000000,5.375000
3016013,16.000000,48.000000,5.375000
3016014,24.000000,48.000000,5.375000
3016015,32.000000,48.000000,5.375000
3016016,40.000000,48.000000,5.375000
3016017,48.000000,48.000000,5.375000
3016018,56.000000,48.000000,5.375000
3016019,64.000000,48.000000,5.375000
3016020,72.000000,48.000000,5.375000
3016021,80.000000,48.000000,5.375000
3017001,-80.000000,56.000000,5.375000
3017002,-72.000000,56.000000,5.375000
3017003,-64.000000,56.000000,5.375000
3017004,-56.000000,56.000000,5.375000
3017005,-48.000000,56.000000,5.375000
3017006,-40.000000,56.000000,5.375000
3017007,-32.000000,56.000000,5.375000
3017008,-24.000000,56.000000,5.375000
3017009,-16.000000,56.000000,5.375000
3017010,-8.000000,56.000000,5.375000
3017011,0.000000,56.000000,5.375000
3017012,8.000000,56.000000,5.375000
3017013,16.000000,56.000000,5.375000
3017014,24.000000,56.000000,5.375000
3017015,32.000000,56.000000,5.375000
3017016,40.000000,56.000000,5.375000
3017017,48.000000,56.000000,5.375000
3017018,56.000000,56.000000,5.375000
3017019,64.000000,56.000000,5.375000
3017020,72.000000,56.000000,5.375000
3017021,80.000000,56.000000,5.375000
3018001,-80.000000,64.000000,5.375000
3018002,-72.000000,64.000000,5.375000
3018003,-64.000000,64.000000,5.375000
3018004,-56.000000,64.000000,5.375000
3018005,-48.000000,64.000000,5.375000
3018006,-40.000000,64.000000,5.375000
3018007,-32.000000,64.000000,5.375000
3018008,-24.000000,64.000000,5.375000
3018009,-16.000000,64.000000,5.375000
3018010,-8.000000,64.000000,5.375000
3018011,0.000000,64.000000,5.375000
3018012,8.000000,64.000000,5.375000
3018013,16.000000,64.000000,5.375000
3018014,24.000000,64.000000,5.375000
3018015,32.000000,64.000000,5.375000
3018016,40.000000,64.000000,5.375000
3018017,48.000000,64.000000,5.375000
3018018,56.000000,64.000000,5.375000
3018019,64.000000,64.000000,5.375000
3018020,72.000000,64.000000,5.375000
3018021,80.000000,64.000000,5.375000
3019001,-80.000000,72.000000,5.375000
3019002,-72.000000,72.000000,5.375000
3019003,-64.000000,72.000000,5.375000
3019004,-56.000000,72.000000,5.375000
3019005,-48.000000,72.000000,5.375000
3019006,-40.000000,72.000000,5.375000
3019007,-32.000000,72.000000,5.375000
3019008,-24.000000,72.000000,5.375000
3019009,-16.000000,72.000000,5.375000
3019010,-8.000000,72.000000,5.375000
3019011,0.000000,72.000000,5.375000
3019012,8.000000,72.000000,5.375000
3019013,16.000000,72.000000,5.375000
3019014,24.000000,72.000000,5.375000
3019015,32.000000,72.000000,5.375000
3019016,40.000000,72.000000,5.375000
3019017,48.000000,72.000000,5.375000
3019018,56.000000,72.000000,5.375000
3019019,64.000000,72.000000,5.375000
3019020,72.000000,72.000000,5.375000
3019021,80.000000,72.000000,5.375000
3020001,-80.000000,80.000000,5.375000
3020002,-72.000000,80.000000,5.375000
3020003,-64.000000,80.000000,5.375000
3020004,-56.000000,80.000000,5.375000
3020005,-48.000000,80.000000,5.375000
3020006,-40.000000,80.000000,5.375000
3020007,-32.000000,80.000000,5.375000
3020008,-24.000000,80.000000,5.375000
3020009,-16.000000,80.000000,5.375000
3020010,-8.000000,80.000000,5.375000
3020011,0.000000,80.000000,5.375000
3020012,8.000000,80.000000,5.375000
3020013,16.000000,80.000000,5.375000
3020014,24.000000,80.000000,5.375000
3020015,32.000000,80.000000,5.375000
3020016,40.000000,80.000000,5.375000
3020017,48.000000,80.000000,5.375000
3020018,56.000000,80.000000,5.375000
3020019,64.000000,80.000000,5.375000
3020020,72.000000,80.000000,5.375000
3020021,80.000000,80.000000,5.375000
4000001,-80.000000,-80.000000,8.062500
4000002,-72.000000,-80.000000,8.062500
4000003,-64.000000,-80.000000,8.062500
4000004,-56.000000,-80.000000,8.062500
4000005,-48.000000,-80.000000,8.062500
4000006,-40.000000,-80.000000,8.062500
4000007,-32.000000,-80.000000,8.062500
4000008,-24.000000,-80.000000,8.062500
4000009,-16.000000,-80.000000,8.062500
4000010,-8.000000,-80.000000,8.062500
4000011,0.000000,-80.000000,8.062500
4000012,8.000000,-80.000000,8.062500
4000013,16.000000,-80.000000,8.062500
4000014,24.000000,-80.000000,8.062500
4000015,32.000000,-80.000000,8.062500
4000016,40.000000,-80.000000,8.062500
4000017,48.000000,-80.000000,8.062500
4000018,56.000000,-80.000000,8.062500
4000019,64.000000,-80.000000,8.062500
4000020,72.000000,-80.000000,8.062500
4000021,80.000000,-80.000000,8.062500
4001001,-80.000000,-72.000000,8.062500
4001002,-72.000000,-72.000000,8.062500
4001003,-64.000000,-72.000000,8.062500
4001004,-56.000000,-72.000000,8.062500
4001005,-48.000000,-72.000000,8.062500
4001006,-40.000000,-72.000000,8.062500
4001007,-32.000000,-72.000000,8.062500
4001008,-24.000000,-72.000000,8.062500
4001009,-16.000000,-72.000000,8.062500
4001010,-8.000000,-72.000000,8.062500
4001011,0.000000,-72.000000,8.062500
4001012,8.000000,-72.000000,8.062500
4001013,16.000000,-72.000000,8.062500
4001014,24.000000,-72.000000,8.062500
4001015,32.000000,-72.000000,8.062500
4001016,40.000000,-72.000000,8.062500
4001017,48.000000,-72.000000,8.062500
4001018,56.000000,-72.000000,8.062500
4001019,64.000000,-72.000000,8.062500
4001020,72.000000,-72.000000,8.062500
4001021,80.000000,-72.000000,8.062500
4002001,-80.000000,-64.000000,8.062500
4002002,-72.000000,-64.000000,8.062500
4002003,-64.000000,-64.000000,8.062500
4002004,-56.000000,-64.000000,8.062500
4002005,-48.000000,-64.000000,8.062500
4002006,-40.000000,-64.000000,8.062500
4002007,-32.000000,-64.000000,8.062500
4002008,-24.000000,-64.000000,8.062500
4002009,-16.000000,-64.000000,8.062500
4002010,-8.000000,-64.000000,8.062500
4002011,0.000000,-64.000000,8.062500
4002012,8.000000,-64.000000,8.062500
4002013,16.000000,-64.000000,8.062500
4002014,24.000000,-64.000000,8.062500
4002015,32.000000,-64.000000,8.062500
4002016,40.000000,-64.000000,8.062500
4002017,48.000000,-64.000000,8.062500
4002018,56.000000,-64.000000,8.062500
4002019,64.000000,-64.000000,8.062500
4002020,72.000000,-64.000000,8.062500
4002021,80.000000,-64.000000,8.062500
4003001,-80.000000,-56.000000,8.062500
4003002,-72.000000,-56.000000,8.062500
4003003,-64.000000,-56.000000,8.062500
4003004,-56.000000,-56.000000,8.062500
4003005,-48.000000,-56.000000,8.062500
4003006,-40.000000,-56.000000,8.062500
4003007,-32.000000,-56.000000,8.062500
4003008,-24.000000,-56.000000,8.062500
4003009,-16.000000,-56.000000,8.062500
4003010,-8.000000,-56.000000,8.062500
4003011,0.000000,-56.000000,8.062500
4003012,8.000000,-56.000000,8.062500
4003013,16.000000,-56.000000,8.062500
4003014,24.000000,-56.000000,8.062500
4003015,32.000000,-56.000000,8.062500
4003016,40.000000,-56.000000,8.062500
4003017,48.000000,-56.000000,8.062500
4003018,56.000000,-56.000000,8.062500
4003019,64.000000,-56.000000,8.062500
4003020,72.000000,-56.000000,8.062500
4003021,80.000000,-56.000000,8.062500
4004001,-80.000000,-48.000000,8.062500
4004002,-72.000000,-48.000000,8.062500
4004003,-64.000000,-48.000000,8.062500
4004004,-56.000000,-48.000000,8.062500
4004005,-48.000000,-48.000000,8.062500
4004006,-40.000000,-48.000000,8.062500
4004007,-32.000000,-48.000000,8.062500
4004008,-24.000000,-48.000000,8.062500
4004009,-16.000000,-48.000000,8.062500
4004010,-8.000000,-48.000000,8.062500
4004011,0.000000,-48.000000,8.062500
4004012,8.000000,-48.000000,8.062500
4004013,16.000000,-48.000000,8.062500
4004014,24.000000,-48.000000,8.062500
4004015,32.000000,-48.000000,8.062500
4004016,40.000000,-48.000000,8.062500
4004017,48.000000,-48.000000,8.062500
4004018,56.000000,-48.000000,8.062500
4004019,64.000000,-48.000000,8.062500
4004020,72.000000,-48.000000,8.062500
4004021,80.000000,-48.000000,8.062500
4005001,-80.000000,-40.000000,8.062500
4005002,-72.000000,-40.000000,8.062500
4005003,-64.000000,-40.000000,8.062500
4005004,-56.000000,-40.000000,8.062500
4005005,-48.000000,-40.000000,8.062500
4005006,-40.000000,-40.000000,8.062500
4005007,-32.000000,-40.000000,8.062500
4005008,-24.000000,-40.000000,8.062500
4005009,-16.000000,-40.000000,8.062500
4005010,-8.000000,-40.000000,8.062500
4005011,0.000000,-40.000000,8.062500
4005012,8.000000,-40.000000,8.062500
4005013,16.000000,-40.000000,8.062500
4005014,24.000000,-40.000000,8.062500
4005015,32.000000,-40.000000,8.062500
4005016,40.000000,-40.000000,8.062500
4005017,48.000000,-40.000000,8.062500
4005018,56.000000,-40.000000,8.062500
4005019,64.000000,-40.000000,8.062500
4005020,72.000000,-40.000000,8.062500
4005021,80.000000,-40.000000,8.062500
4006001,-80.000000,-32.000000,8.062500
4006002,-72.000000,-32.000000,8.062500
4006003,-64.000000,-32.000000,8.062500
4006004,-56.000000,-32.000000,8.062500
4006005,-48.000000,-32.000000,8.062500
4006006,-40.000000,-32.000000,8.062500
4006007,-32.000000,-32.000000,8.062500
4006008,-24.000000,-32.000000,8.062500
4006009,-16.000000,-32.000000,8.062500
4006010,-8.000000,-32.000000,8.062500
4006011,0.000000,-32.000000,8.062500
4006012,8.000000,-32.000000,8.062500
4006013,16.000000,-32.000000,8.062500
4006014,24.000000,-32.000000,8.062500
4006015,32.000000,-32.000000,8.062500
4006016,40.000000,-32.000000,8.062500
4006017,48.000000,-32.000000,8.062500
4006018,56.000000,-32.000000,8.062500
4006019,64.000000,-32.000000,8.062500
4006020,72.000000,-32.000000,8.062500
4006021,80.000000,-32.000000,8.062500
4007001,-80.000000,-24.000000,8.062500
4007002,-72.000000,-24.000000,8.062500
4007003,-64.000000,-24.000000,8.062500
4007004,-56.000000,-24.000000,8.062500
4007005,-48.000000,-24.000000,8.062500
4007006,-40.000000,-24.000000,8.062500
4007007,-32.000000,-24.000000,8.062500
4007008,-24.000000,-24.000000,8.062500
4007009,-16.000000,-24.000000,8.062500
4007010,-8.000000,-24.000000,8.062500
4007011,0.000000,-24.000000,8.062500
4007012,8.000000,-24.000000,8.062500
4007013,16.000000,-24.000000,8.062500
4007014,24.000000,-24.000000,8.062500
4007015,32.000000,-24.000000,8.062500
4007016,40.000000,-24.000000,8.062500
4007017,48.000000,-24.000000,8.062500
4007018,56.000000,-24.000000,8.062500
4007019,64.000000,-24.000000,8.062500
4007020,72.000000,-24.000000,8.062500
4007021,80.000000,-24.000000,8.062500
4008001,-80.000000,-16.000000,8.062500
4008002,-72.000000,-16.000000,8.062500
4008003,-64.000000,-16.000000,8.062500
4008004,-56.000000,-16.000000,8.062500
4008005,-48.000000,-16.000000,8.062500
4008006,-40.000000,-16.000000,8.062500
4008007,-32.000000,-16.000000,8.062500
4008008,-24.000000,-16.000000,8.062500
4008009,-16.000000,-16.000000,8.062500
4008013,16.000000,-16.000000,8.062500
4008014,24.000000,-16.000000,8.062500
4008015,32.000000,-16.000000,8.062500
4008016,40.000000,-16.000000,8.062500
4008017,48.000000,-16.000000,8.062500
4008018,56.000000,-16.000000,8.062500
4008019,64.000000,-16.000000,8.062500
4008020,72.000000,-16.000000,8.062500
4008021,80.000000,-16.000000,8.062500
4009001,-80.000000,-8.000000,8.062500
4009002,-72.000000,-8.000000,8.062500
4009003,-64.000000,-8.000000,8.062500
4009004,-56.000000,-8.000000,8.062500
4009005,-48.000000,-8.000000,8.062500
4009006,-40.000000,-8.000000,8.062500
4009007,-32.000000,-8.000000,8.062500
4009008,-24.000000,-8.000000,8.062500
4009014,24.000000,-8.000000,8.062500
4009015,32.000000,-8.000000,8.062500
4009016,40.000000,-8.000000,8.062500
4009017,48.000000,-8.000000,8.062500
4009018,56.000000,-8.000000,8.062500
4009019,64.000000,-8.000000,8.062500
4009020,72.000000,-8.000000,8.062500
4009021,80.000000,-8.000000,8.062500
4010001,-80.000000,0.000000,8.062500
4010002,-72.000000,0.000000,8.062500
4010003,-64.000000,0.000000,8.062500
4010004,-56.000000,0.000000,8.062500
4010005,-48.000000,0.000000,8.062500
4010006,-40.000000,0.000000,8.062500
4010007,-32.000000,0.000000,8.062500
4010008,-24.000000,0.000000,8.062500
4010014,24.000000,0.000000,8.062500
4010015,32.000000,0.000000,8.062500
4010016,40.000000,0.000000,8.062500
4010017,48.000000,0.000000,8.062500
4010018,56.000000,0.000000,8.062500
4010019,64.000000,0.000000,8.062500
4010020,72.000000,0.000000,8.062500
4010021,80.000000,0.000000,8.062500
4011001,-80.000000,8.000000,8.062500
4011002,-72.000000,8.000000,8.062500
4011003,-64.000000,8.000000,8.062500
4011004,-56.000000,8.000000,8.062500
4011005,-48.000000,8.000000,8.062500
4011006,-40.000000,8.000000,8.062500
4011007,-32.000000,8.000000,8.062500
4011008,-24.000000,8.000000,8.062500
4011014,24.000000,8.000000,8.062500
4011015,32.000000,8.000000,8.062500
4011016,40.000000,8.000000,8.062500
4011017,48.000000,8.000000,8.062500
4011018,56.000000,8.000000,8.062500
4011019,64.000000,8.000000,8.062500
4011020,72.000000,8.000000,8.062500
4011021,80.000000,8.000000,8.062500
4012001,-80.000000,16.000000,8.062500
4012002,-72.000000,16.000000,8.062500
4012003,-64.000000,16.000000,8.062500
4012004,-56.000000,16.000000,8.062500
4012005,-48.000000,16.000000,8.062500
4012006,-40.000000,16.000000,8.062500
4012007,-32.000000,16.000000,8.062500
4012008,-24.000000,16.000000,8.062500
4012009,-16.000000,16.000000,8.062500
4012013,16.000000,16.000000,8.062500
4012014,24.000000,16.000000,8.062500
4012015,32.000000,16.000000,8.062500
4012016,40.000000,16.000000,8.062500
4012017,48.000000,16.000000,8.062500
4012018,56.000000,16.000000,8.062500
4012019,64.000000,16.000000,8.062500
4012020,72.000000,16.000000,8.062500
4012021,80.000000,16.000000,8.062500
4013001,-80.000000,24.000000,8.062500
4013002,-72.000000,24.000000,8.062500
4013003,-64.000000,24.000000,8.062500
4013004,-56.000000,24.000000,8.062500
4013005,-48.000000,24.000000,8.062500
4013006,-40.000000,24.000000,8.062500
4013007,-32.000000,24.000000,8.062500
4013008,-24.000000,24.000000,8.062500
4013009,-16.000000,24.000000,8.062500
4013010,-8.000000,24.000000,8.062500
4013011,0.000000,24.000000,8.062500
4013012,8.000000,24.000000,8.062500
4013013,16.000000,24.000000,8.062500
4013014,24.000000,24.000000,8.062500
4013015,32.000000,24.000000,8.062500
4013016,40.000000,24.000000,8.062500
4013017,48.000000,24.000000,8.062500
4013018,56.000000,24.000000,8.062500
4013019,64.000000,24.000000,8.062500
4013020,72.000000,24.000000,8.062500
4013021,80.000000,24.000000,8.062500
4014001,-80.000000,32.000000,8.062500
4014002,-72.000000,32.000000,8.062500
4014003,-64.000000,32.000000,8.062500
4014004,-56.000000,32.000000,8.062500
4014005,-48.000000,32.000000,8.062500
4014006,-40.000000,32.000000,8.062500
4014007,-32.000000,32.000000,8.062500
4014008,-24.000000,32.000000,8.062500
4014009,-16.000000,32.000000,8.062500
4014010,-8.000000,32.000000,8.062500
4014011,0.000000,32.000000,8.062500
4014012,8.000000,32.000000,8.062500
4014013,16.000000,32.000000,8.062500
4014014,24.000000,32.000000,8.062500
4014015,32.000000,32.000000,8.062500
4014016,40.000000,32.000000,8.062500
4014017,48.000000,32.000000,8.062500
4014018,56.000000,32.000000,8.062500
4014019,64.000000,32.000000,8.062500
4014020,72.000000,32.000000,8.062500
4014021,80.000000,32.000000,8.062500
4015001,-80.000000,40.000000,8.062500
4015002,-72.000000,40.000000,8.062500
4015003,-64.000000,40.000000,8.062500
4015004,-56.000000,40.000000,8.062500
4015005,-48.000000,40.000000,8.062500
4015006,-40.000000,40.000000,8.062500
4015007,-32.000000,40.000000,8.062500
4015008,-24.000000,40.000000,8.062500
4015009,-16.000000,40.000000,8.062500
4015010,-8.000000,40.000000,8.062500
4015011,0.000000,40.000000,8.062500
4015012,8.000000,40.000000,8.062500
4015013,16.000000,40.000000,8.062500
4015014,24.000000,40.000000,8.062500
4015015,32.000000,40.000000,8.062500
4015016,40.000000,40.000000,8.062500
4015017,48.000000,40.000000,8.062500
4015018,56.000000,40.000000,8.062500
4015019,64.000000,40.000000,8.062500
4015020,72.000000,40.000000,8.062500
4015021,80.000000,40.000000,8.062500
4016001,-80.000000,48.000000,8.062500
4016002,-72.000000,48.000000,8.062500
4016003,-64.000000,48.000000,8.062500
4016004,-56.000000,48.000000,8.062500
4016005,-48.000000,48.000000,8.062500
4016006,-40.000000,48.000000,8.062500
4016007,-32.000000,48.000000,8.062500
4016008,-24.000000,48.000000,8.062500
4016009,-16.000000,48.000000,8.062500
4016010,-8.000000,48.000000,8.062500
4016011,0.000000,48.000000,8.062500
4016012,8.000000,48.000000,8.062500
4016013,16.000000,48.000000,8.062500
4016014,24.000000,48.000000,8.062500
4016015,32.000000,48.000000,8.062500
4016016,40.000000,48.000000,8.062500
4016017,48.000000,48.000000,8.062500
4016018,56.000000,48.000000,8.062500
4016019,64.000000,48.000000,8.062500
4016020,72.000000,48.000000,8.062500
4016021,80.000000,48.000000,8.062500
4017001,-80.000000,56.000000,8.062500
4017002,-72.000000,56.000000,8.062500
4017003,-64.000000,56.000000,8.062500
4017004,-56.000000,56.000000,8.062500
4017005,-48.000000,56.000000,8.062500
4017006,-40.000000,56.000000,8.062500
4017007,-32.000000,56.000000,8.062500
4017008,-24.000000,56.000000,8.062500
4017009,-16.000000,56.000000,8.062500
4017010,-8.000000,56.000000,8.062500
4017011,0.000000,56.000000,8.062500
4017012,8.000000,56.000000,8.062500
4017013,16.000000,56.000000,8.062500
4017014,24.000000,56.000000,8.062500
4017015,32.000000,56.000000,8.062500
4017016,40.000000,56.000000,8.062500
4017017,48.000000,56.000000,8.062500
4017018,56.000000,56.000000,8.062500
4017019,64.000000,56.000000,8.062500
4017020,72.000000,56.000000,8.062500
4017021,80.000000,56.000000,8.062500
4018001,-80.000000,64.000000,8.062500
4018002,-72.000000,64.000000,8.062500
4018003,-64.000000,64.000000,8.062500
4018004,-56.000000,64.000000,8.062500
4018005,-48.000000,64.000000,8.062500
4018006,-40.000000,64.000000,8.062500
4018007,-32.000000,64.000000,8.062500
4018008,-24.000000,64.000000,8.062500
4018009,-16.000000,64.000000,8.062500
4018010,-8.000000,64.000000,8.062500
4018011,0.000000,64.000000,8.062500
4018012,8.000000,64.000000,8.062500
4018013,16.000000,64.000000,8.062500
4018014,24.000000,64.000000,8.062500
4018015,32.000000,64.000000,8.062500
4018016,40.000000,64.000000,8.062500
4018017,48.000000,64.000000,8.062500
4018018,56.000000,64.000000,8.062500
4018019,64.000000,64.000000,8.062500
4018020,72.000000,64.000000,8.062500
4018021,80.000000,64.000000,8.062500
4019001,-80.000000,72.000000,8.062500
4019002,-72.000000,72.000000,8.062500
4019003,-64.000000,72.000000,8.062500
4019004,-56.000000,72.000000,8.062500
4019005,-48.000000,72.000000,8.062500
4019006,-40.000000,72.000000,8.062500
4019007,-32.000000,72.000000,8.062500
4019008,-24.000000,72.000000,8.062500
4019009,-16.000000,72.000000,8.062500
4019010,-8.000000,72.000000,8.062500
4019011,0.000000,72.000000,8.062500
4019012,8.000000,72.000000,8.062500
4019013,16.000000,72.000000,8.062500
4019014,24.000000,72.000000,8.062500
4019015,32.000000,72.000000,8.062500
4019016,40.000000,72.000000,8.062500
4019017,48.000000,72.000000,8.062500
4019018,56.000000,72.000000,8.062500
4019019,64.000000,72.000000,8.062500
4019020,72.000000,72.000000,8.062500
4019021,80.000000,72.000000,8.062500
4020001,-80.000000,80.000000,8.062500
4020002,-72.000000,80.000000,8.062500
4020003,-64.000000,80.000000,8.062500
4020004,-56.000000,80.000000,8.062500
4020005,-48.000000,80.000000,8.062500
4020006,-40.000000,80.000000,8.062500
4020007,-32.000000,80.000000,8.062500
4020008,-24.000000,80.000000,8.062500
4020009,-16.000000,80.000000,8.062500
4020010,-8.000000,80.000000,8.062500
4020011,0.000000,80.000000,8.062500
4020012,8.000000,80.000000,8.062500
4020013,16.000000,80.000000,8.062500
4020014,24.000000,80.000000,8.062500
4020015,32.000000,80.000000,8.062500
4020016,40.000000,80.000000,8.062500
4020017,48.000000,80.000000,8.062500
4020018,56.000000,80.000000,8.062500
4020019,64.000000,80.000000,8.062500
4020020,72.000000,80.000000,8.062500
4020021,80.000000,80.000000,8.062500
5000001,-80.000000,-80.000000,10.750000
5000002,-72.000000,-80.000000,10.750000
5000003,-64.000000,-80.000000,10.750000
5000004,-56.000000,-80.000000,10.750000
5000005,-48.000000,-80.000000,10.750000
5000006,-40.000000,-80.000000,10.750000
5000007,-32.000000,-80.000000,10.750000
5000008,-24.000000,-80.000000,10.750000
5000009,-16.000000,-80.000000,10.750000
5000010,-8.000000,-80.000000,10.750000
5000011,0.000000,-80.000000,10.750000
5000012,8.000000,-80.000000,10.750000
5000013,16.000000,-80.000000,10.750000
5000014,24.000000,-80.000000,10.750000
5000015,32.000000,-80.000000,10.750000
5000016,40.000000,-80.000000,10.750000
5000017,48.000000,-80.000000,10.750000
5000018,56.000000,-80.000000,10.750000
5000019,64.000000,-80.000000,10.750000
5000020,72.000000,-80.000000,10.750000
5000021,80.000000,-80.000000,10.750000
5001001,-80.000000,-72.000000,10.750000
5001002,-72.000000,-72.000000,10.750000
5001003,-64.000000,-72.000000,10.750000
5001004,-56.000000,-72.000000,10.750000
5001005,-48.000000,-72.000000,10.750000
5001006,-40.000000,-72.000000,10.750000
5001007,-32.000000,-72.000000,10.750000
5001008,-24.000000,-72.000000,10.750000
5001009,-16.000000,-72.000000,10.750000
5001010,-8.000000,-72.000000,10.750000
5001011,0.000000,-72.000000,10.750000
5001012,8.000000,-72.000000,10.750000
5001013,16.000000,-72.000000,10.750000
5001014,24.000000,-72.000000,10.750000
5001015,32.000000,-72.000000,10.750000
5001016,40.000000,-72.000000,10.750000
5001017,48.000000,-72.000000,10.750000
5001018,56.000000,-72.000000,10.750000
5001019,64.000000,-72.000000,10.750000
5001020,72.000000,-72.000000,10.750000
5001021,80.000000,-72.000000,10.750000
5002001,-80.000000,-64.000000,10.750000
5002002,-72.000000,-64.000000,10.750000
5002003,-64.000000,-64.000000,10.750000
5002004,-56.000000,-64.000000,10.750000
5002005,-48.000000,-64.000000,10.750000
5002006,-40.000000,-64.000000,10.750000
5002007,-32.000000,-64.000000,10.750000
5002008,-24.000000,-64.000000,10.750000
5002009,-16.000000,-64.000000,10.750000
5002010,-8.000000,-64.000000,10.750000
5002011,0.000000,-64.000000,10.750000
5002012,8.000000,-64.000000,10.750000
5002013,16.000000,-64.000000,10.750000
5002014,24.000000,-64.000000,10.750000
5002015,32.000000,-64.000000,10.750000
5002016,40.000000,-64.000000,10.750000
5002017,48.000000,-64.000000,10.750000
5002018,56.000000,-64.000000,10.750000
5002019,64.000000,-64.000000,10.750000
5002020,72.000000,-64.000000,10.750000
5002021,80.000000,-64.000000,10.750000
5003001,-80.000000,-56.000000,10.750000
5003002,-72.000000,-56.000000,10.750000
5003003,-64.000000,-56.000000,10.750000
5003004,-56.000000,-56.000000,10.750000
5003005,-48.000000,-56.000000,10.750000
5003006,-40.000000,-56.000000,10.750000
5003007,-32.000000,-56.000000,10.750000
5003008,-24.000000,-56.000000,10.750000
5003009,-16.000000,-56.000000,10.750000
5003010,-8.000000,-56.000000,10.750000
5003011,0.000000,-56.000000,10.750000
5003012,8.000000,-56.000000,10.750000
5003013,16.000000,-56.000000,10.750000
5003014,24.000000,-56.000000,10.750000
5003015,32.000000,-56.000000,10.750000
5003016,40.000000,-56.000000,10.750000
5003017,48.000000,-56.000000,10.750000
5003018,56.000000,-56.000000,10.750000
5003019,64.000000,-56.000000,10.750000
5003020,72.000000,-56.000000,10.750000
5003021,80.000000,-56.000000,10.750000
5004001,-80.000000,-48.000000,10.750000
5004002,-72.000000,-48.000000,10.750000
5004003,-64.000000,-48.000000,10.750000
5004004,-56.000000,-48.000000,10.750000
5004005,-48.000000,-48.000000,10.750000
5004006,-40.000000,-48.000000,10.750000
5004007,-32.000000,-48.000000,10.750000
5004008,-24.000000,-48.000000,10.750000
5004009,-16.000000,-48.000000,10.750000
5004010,-8.000000,-48.000000,10.750000
5004011,0.000000,-48.000000,10.750000
5004012,8.000000,-48.000000,10.750000
5004013,16.000000,-48.000000,10.750000
5004014,24.000000,-48.000000,10.750000
5004015,32.000000,-48.000000,10.750000
5004016,40.000000,-48.000000,10.750000
5004017,48.000000,-48.000000,10.750000
5004018,56.000000,-48.000000,10.750000
5004019,64.000000,-48.000000,10.750000
5004020,72.000000,-48.000000,10.750000
5004021,80.000000,-48.000000,10.750000
5005001,-80.000000,-40.000000,10.750000
5005002,-72.000000,-40.000000,10.750000
5005003,-64.000000,-40.000000,10.750000
5005004,-56.000000,-40.000000,10.750000
5005005,-48.000000,-40.000000,10.750000
5005006,-40.000000,-40.000000,10.750000
5005007,-32.000000,-40.000000,10.750000
5005008,-24.000000,-40.000000,10.750000
5005009,-16.000000,-40.000000,10.750000
5005010,-8.000000,-40.000000,10.750000
5005011,0.000000,-40.000000,10.750000
5005012,8.000000,-40.000000,10.750000
5005013,16.000000,-40.000000,10.750000
5005014,24.000000,-40.000000,10.750000
5005015,32.000000,-40.000000,10.750000
5005016,40.000000,-40.000000,10.750000
5005017,48.000000,-40.000000,10.750000
5005018,56.000000,-40.000000,10.750000
5005019,64.000000,-40.000000,10.750000
5005020,72.000000,-40.000000,10.750000
5005021,80.000000,-40.000000,10.750000
5006001,-80.000000,-32.000000,10.750000
5006002,-72.000000,-32.000000,10.750000
5006003,-64.000000,-32.000000,10.750000
5006004,-56.000000,-32.000000,10.750000
5006005,-48.000000,-32.000000,10.750000
5006006,-40.000000,-32.000000,10.750000
5006007,-32.000000,-32.000000,10.750000
5006008,-24.000000,-32.000000,10.750000
5006009,-16.000000,-32.000000,10.750000
5006010,-8.000000,-32.000000,10.750000
5006011,0.000000,-32.000000,10.750000
5006012,8.000000,-32.000000,10.750000
5006013,16.000000,-32.000000,10.750000
5006014,24.000000,-32.000000,10.750000
5006015,32.000000,-32.000000,10.750000
5006016,40.000000,-32.000000,10.750000
5006017,48.000000,-32.000000,10.750000
5006018,56.000000,-32.000000,10.750000
5006019,64.000000,-32.000000,10.750000
5006020,72.000000,-32.000000,10.750000
5006021,80.000000,-32.000000,10.750000
5007001,-80.000000,-24.000000,10.750000
5007002,-72.000000,-24.000000,10.750000
5007003,-64.000000,-24.000000,10.750000
5007004,-56.000000,-24.000000,10.750000
5007005,-48.000000,-24.000000,10.750000
5007006,-40.000000,-24.000000,10.750000
5007007,-32.000000,-24.000000,10.750000
5007008,-24.000000,-24.000000,10.750000
5007009,-16.000000,-24.000000,10.750000
5007010,-8.000000,-24.000000,10.750000
5007011,0.000000,-24.000000,10.750000
5007012,8.000000,-24.000000,10.750000
5007013,16.000000,-24.000000,10.750000
5007014,24.000000,-24.000000,10.750000
5007015,32.000000,-24.000000,10.750000
5007016,40.000000,-24.000000,10.750000
5007017,48.000000,-24.000000,10.750000
5007018,56.000000,-24.000000,10.750000
5007019,64.000000,-24.000000,10.750000
5007020,72.000000,-24.000000,10.750000
5007021,80.000000,-24.000000,10.750000
5008001,-80.000000,-16.000000,10.750000
5008002,-72.000000,-16.000000,10.750000
5008003,-64.000000,-16.000000,10.750000
5008004,-56.000000,-16.000000,10.750000
5008005,-48.000000,-16.000000,10.750000
5008006,-40.000000,-16.000000,10.750000
5008007,-32.000000,-16.000000,10.750000
5008008,-24.000000,-16.000000,10.750000
5008009,-16.000000,-16.000000,10.750000
5008013,16.000000,-16.000000,10.750000
5008014,24.000000,-16.000000,10.750000
5008015,32.000000,-16.000000,10.750000
5008016,40.000000,-16.000000,10.750000
5008017,48.000000,-16.000000,10.750000
5008018,56.000000,-16.000000,10.750000
5008019,64.000000,-16.000000,10.750000
5008020,72.000000,-16.000000,10.750000
5008021,80.000000,-16.000000,10.750000
5009001,-80.000000,-8.000000,10.750000
5009002,-72.000000,-8.000000,10.750000
5009003,-64.000000,-8.000000,10.750000
5009004,-56.000000,-8.000000,10.750000
5009005,-48.000000,-8.000000,10.750000
5009006,-40.000000,-8.000000,10.750000
5009007,-32.000000,-8.000000,10.750000
5009008,-24.000000,-8.000000,10.750000
5009014,24.000000,-8.000000,10.750000
5009015,32.000000,-8.000000,10.750000
5009016,40.000000,-8.000000,10.750000
5009017,48.000000,-8.000000,10.750000
5009018,56.000000,-8.000000,10.750000
5009019,64.000000,-8.000000,10.750000
5009020,72.000000,-8.000000,10.750000
5009021,80.000000,-8.000000,10.750000
5010001,-80.000000,0.000000,10.750000
5010002,-72.000000,0.000000,10.750000
5010003,-64.000000,0.000000,10.750000
5010004,-56.000000,0.000000,10.750000
5010005,-48.000000,0.000000,10.750000
5010006,-40.000000,0.000000,10.750000
5010007,-32.000000,0.000000,10.750000
5010008,-24.000000,0.000000,10.750000
5010014,24.000000,0.000000,10.750000
5010015,32.000000,0.000000,10.750000
5010016,40.000000,0.000000,10.750000
5010017,48.000000,0.000000,10.750000
5010018,56.000000,0.000000,10.750000
5010019,64.000000,0.000000,10.750000
5010020,72.000000,0.000000,10.750000
5010021,80.000000,0.000000,10.750000
5011001,-80.000000,8.000000,10.750000
5011002,-72.000000,8.000000,10.750000
5011003,-64.000000,8.000000,10.750000
5011004,-56.000000,8.000000,10.750000
5011005,-48.000000,8.000000,10.750000
5011006,-40.000000,8.000000,10.750000
5011007,-32.000000,8.000000,10.750000
5011008,-24.000000,8.000000,10.750000
5011014,24.000000,8.000000,10.750000
5011015,32.000000,8.000000,10.750000
5011016,40.000000,8.000000,10.750000
5011017,48.000000,8.000000,10.750000
5011018,56.000000,8.000000,10.750000
5011019,64.000000,8.000000,10.750000
5011020,72.000000,8.000000,10.750000
5011021,80.000000,8.000000,10.750000
5012001,-80.000000,16.000000,10.750000
5012002,-72.000000,16.000000,10.750000
5012003,-64.000000,16.000000,10.750000
5012004,-56.000000,16.000000,10.750000
5012005,-48.000000,16.000000,10.750000
5012006,-40.000000,16.000000,10.750000
5012007,-32.000000,16.000000,10.750000
5012008,-24.000000,16.000000,10.750000
5012009,-16.000000,16.000000,10.750000
5012013,16.000000,16.000000,10.750000
5012014,24.000000,16.000000,10.750000
5012015,32.000000,16.000000,10.750000
5012016,40.000000,16.000000,10.750000
5012017,48.000000,16.000000,10.750000
5012018,56.000000,16.000000,10.750000
5012019,64.000000,16.000000,10.750000
5012020,72.000000,16.000000,10.750000
5012021,80.000000,16.000000,10.750000
5013001,-80.000000,24.000000,10.750000
5013002,-72.000000,24.000000,10.750000
5013003,-64.000000,24.000000,10.750000
5013004,-56.000000,24.000000,10.750000
5013005,-48.000000,24.000000,10.750000
5013006,-40.000000,24.000000,10.750000
5013007,-32.000000,24.000000,10.750000
5013008,-24.000000,24.000000,10.750000
5013009,-16.000000,24.000000,10.750000
5013010,-8.000000,24.000000,10.750000
5013011,0.000000,24.000000,10.750000
5013012,8.000000,24.000000,10.750000
5013013,16.000000,24.000000,10.750000
5013014,24.000000,24.000000,10.750000
5013015,32.000000,24.000000,10.750000
5013016,40.000000,24.000000,10.750000
5013017,48.000000,24.000000,10.750000
5013018,56.000000,24.000000,10.750000
5013019,64.000000,24.000000,10.750000
5013020,72.000000,24.000000,10.750000
5013021,80.000000,24.000000,10.750000
5014001,-80.000000,32.000000,10.750000
5014002,-72.000000,32.000000,10.750000
5014003,-64.000000,32.000000,10.750000
5014004,-56.000000,32.000000,10.750000
5014005,-48.000000,32.000000,10.750000
5014006,-40.000000,32.000000,10.750000
5014007,-32.000000,32.000000,10.750000
5014008,-24.000000,32.000000,10.750000
5014009,-16.000000,32.000000,10.750000
5014010,-8.000000,32.000000,10.750000
5014011,0.000000,32.000000,10.750000
5014012,8.000000,32.000000,10.750000
5014013,16.000000,32.000000,10.750000
5014014,24.000000,32.000000,10.750000
5014015,32.000000,32.000000,10.750000
5014016,40.000000,32.000000,10.750000
5014017,48.000000,32.000000,10.750000
5014018,56.000000,32.000000,10.750000
5014019,64.000000,32.000000,10.750000
5014020,72.000000,32.000000,10.750000
5014021,80.000000,32.000000,10.750000
5015001,-80.000000,40.000000,10.750000
5015002,-72.000000,40.000000,10.750000
5015003,-64.000000,40.000000,10.750000
5015004,-56.000000,40.000000,10.750000
5015005,-48.000000,40.000000,10.750000
5015006,-40.000000,40.000000,10.750000
5015007,-32.000000,40.000000,10.750000
5015008,-24.000000,40.000000,10.750000
5015009,-16.000000,40.000000,10.750000
5015010,-8.000000,40.000000,10.750000
5015011,0.000000,40.000000,10.750000
5015012,8.000000,40.000000,10.750000
5015013,16.000000,40.000000,10.750000
5015014,24.000000,40.000000,10.750000
5015015,32.000000,40.000000,10.750000
5015016,40.000000,40.000000,10.750000
5015017,48.000000,40.000000,10.750000
5015018,56.000000,40.000000,10.750000
5015019,64.000000,40.000000,10.750000
5015020,72.000000,40.000000,10.750000
5015021,80.000000,40.000000,10.750000
5016001,-80.000000,48.000000,10.750000
5016002,-72.000000,48.000000,10.750000
5016003,-64.000000,48.000000,10.750000
5016004,-56.000000,48.000000,10.750000
5016005,-48.000000,48.000000,10.750000
5016006,-40.000000,48.000000,10.750000
5016007,-32.000000,48.000000,10.750000
5016008,-24.000000,48.000000,10.750000
5016009,-16.000000,48.000000,10.750000
5016010,-8.000000,48.000000,10.750000
5016011,0.000000,48.000000,10.750000
5016012,8.000000,48.000000,10.750000
5016013,16.000000,48.000000,10.750000
5016014,24.000000,48.000000,10.750000
5016015,32.000000,48.000000,10.750000
5016016,40.000000,48.000000,10.750000
5016017,48.000000,48.000000,10.750000
5016018,56.000000,48.000000,10.750000
5016019,64.000000,48.000000,10.750000
5016020,72.000000,48.000000,10.750000
5016021,80.000000,48.000000,10.750000
5017001,-80.000000,56.000000,10.750000
5017002,-72.000000,56.000000,10.750000
5017003,-64.000000,56.000000,10.750000
5017004,-56.000000,56.000000,10.750000
5017005,-48.000000,56.000000,10.750000
5017006,-40.000000,56.000000,10.750000
5017007,-32.000000,56.000000,10.750000
5017008,-24.000000,56.000000,10.750000
5017009,-16.000000,56.000000,10.750000
5017010,-8.000000,56.000000,10.750000
5017011,0.000000,56.000000,10.750000
5017012,8.000000,56.000000,10.750000
5017013,16.000000,56.000000,10.750000
5017014,24.000000,56.000000,10.750000
5017015,32.000000,56.000000,10.750000
5017016,40.000000,56.000000,10.750000
5017017,48.000000,56.000000,10.750000
5017018,56.000000,56.000000,10.750000
5017019,64.000000,56.000000,10.750000
5017020,72.000000,56.000000,10.750000
5017021,80.000000,56.000000,10.750000
5018001,-80.000000,64.000000,10.750000
5018002,-72.000000,64.000000,10.750000
5018003,-64.000000,64.000000,10.750000
5018004,-56.000000,64.000000,10.750000
5018005,-48.000000,64.000000,10.750000
5018006,-40.000000,64.000000,10.750000
5018007,-32.000000,64.000000,10.750000
5018008,-24.000000,64.000000,10.750000
5018009,-16.000000,64.000000,10.750000
5018010,-8.000000,64.000000,10.750000
5018011,0.000000,64.000000,10.750000
5018012,8.000000,64.000000,10.750000
5018013,16.000000,64.000000,10.750000
5018014,24.000000,64.000000,10.750000
5018015,32.000000,64.000000,10.750000
5018016,40.000000,64.000000,10.750000
5018017,48.000000,64.000000,10.750000
5018018,56.000000,64.000000,10.750000
5018019,64.000000,64.000000,10.750000
5018020,72.000000,64.000000,10.750000
5018021,80.000000,64.000000,10.750000
5019001,-80.000000,72.000000,10.750000
5019002,-72.000000,72.000000,10.750000
5019003,-64.000000,72.000000,10.750000
5019004,-56.000000,72.000000,10.750000
5019005,-48.000000,72.000000,10.750000
5019006,-40.000000,72.000000,10.750000
5019007,-32.000000,72.000000,10.750000
5019008,-24.000000,72.000000,10.750000
5019009,-16.000000,72.000000,10.750000
5019010,-8.000000,72.000000,10.750000
5019011,0.000000,72.000000,10.750000
5019012,8.000000,72.000000,10.750000
5019013,16.000000,72.000000,10.750000
5019014,24.000000,72.000000,10.750000
5019015,32.000000,72.000000,10.750000
5019016,40.000000,72.000000,10.750000
5019017,48.000000,72.000000,10.750000
5019018,56.000000,72.000000,10.750000
5019019,64.000000,72.000000,10.750000
5019020,72.000000,72.000000,10.750000
5019021,80.000000,72.000000,10.750000
5020001,-80.000000,80.000000,10.750000
5020002,-72.000000,80.000000,10.750000
5020003,-64.000000,80.000000,10.750000
5020004,-56.000000,80.000000,10.750000
5020005,-48.000000,80.000000,10.750000
5020006,-40.000000,80.000000,10.750000
5020007,-32.000000,80.000000,10.750000
5020008,-24.000000,80.000000,10.750000
5020009,-16.000000,80.000000,10.750000
5020010,-8.000000,80.000000,10.750000
5020011,0.000000,80.000000,10.750000
5020012,8.000000,80.000000,10.750000
5020013,16.000000,80.000000,10.750000
5020014,24.000000,80.000000,10.750000
5020015,32.000000,80.000000,10.750000
5020016,40.000000,80.000000,10.750000
5020017,48.000000,80.000000,10.750000
5020018,56.000000,80.000000,10.750000
5020019,64.000000,80.000000,10.750000
5020020,72.000000,80.000000,10.750000
5020021,80.000000,80.000000,10.750000
6000001,-80.000000,-80.000000,10.750000
6000002,-72.000000,-80.000000,10.750000
6000003,-64.000000,-80.000000,10.750000
6000004,-56.000000,-80.000000,10.750000
6000005,-48.000000,-80.000000,10.750000
6000006,-40.000000,-80.000000,10.750000
6000007,-32.000000,-80.000000,10.750000
6000008,-24.000000,-80.000000,10.750000
6000009,-16.000000,-80.000000,10.750000
6000010,-8.000000,-80.000000,10.750000
6000011,0.000000,-80.000000,10.750000
6000012,8.000000,-80.000000,10.750000
6000013,16.000000,-80.000000,10.750000
6000014,24.000000,-80.000000,10.750000
6000015,32.000000,-80.000000,10.750000
6000016,40.000000,-80.000000,10.750000
6000017,48.000000,-80.000000,10.750000
6000018,56.000000,-80.000000,10.750000
6000019,64.000000,-80.000000,10.750000
6000020,72.000000,-80.000000,10.750000
6000021,80.000000,-80.000000,10.750000
6001001,-80.000000,-72.000000,10.750000
6001002,-72.000000,-72.000000,10.750000
6001003,-64.000000,-72.000000,10.750000
6001004,-56.000000,-72.000000,10.750000
6001005,-48.000000,-72.000000,10.750000
6001006,-40.000000,-72.000000,10.750000
6001007,-32.000000,-72.000000,10.750000
6001008,-24.000000,-72.000000,10.750000
6001009,-16.000000,-72.000000,10.750000
6001010,-8.000000,-72.000000,10.750000
6001011,0.000000,-72.000000,10.750000
6001012,8.000000,-72.000000,10.750000
6001013,16.000000,-72.000000,10.750000
6001014,24.000000,-72.000000,10.750000
6001015,32.000000,-72.000000,10.750000
6001016,40.000000,-72.000000,10.750000
6001017,48.000000,-72.000000,10.750000
6001018,56.000000,-72.000000,10.750000
6001019,64.000000,-72.000000,10.750000
6001020,72.000000,-72.000000,10.750000
6001021,80.000000,-72.000000,10.750000
6002001,-80.000000,-64.000000,10.750000
6002002,-72.000000,-64.000000,10.750000
6002003,-64.000000,-64.000000,10.750000
6002004,-56.000000,-64.000000,10.750000
6002005,-48.000000,-64.000000,10.750000
6002006,-40.000000,-64.000000,10.750000
6002007,-32.000000,-64.000000,10.750000
6002008,-24.000000,-64.000000,10.750000
6002009,-16.000000,-64.000000,10.750000
6002010,-8.000000,-64.000000,10.750000
6002011,0.000000,-64.000000,10.750000
6002012,8.000000,-64.000000,10.750000
6002013,16.000000,-64.000000,10.750000
6002014,24.000000,-64.000000,10.750000
6002015,32.000000,-64.000000,10.750000
6002016,40.000000,-64.000000,10.750000
6002017,48.000000,-64.000000,10.750000
6002018,56.000000,-64.000000,10.750000
6002019,64.000000,-64.000000,10.750000
6002020,72.000000,-64.000000,10.750000
6002021,80.000000,-64.000000,10.750000
6003001,-80.000000,-56.000000,10.750000
6003002,-72.000000,-56.000000,10.750000
6003003,-64.000000,-56.000000,10.750000
6003004,-56.000000,-56.000000,10.750000
6003005,-48.000000,-56.000000,10.750000
6003006,-40.000000,-56.000000,10.750000
6003007,-32.000000,-56.000000,10.750000
6003008,-24.000000,-56.000000,10.750000
6003009,-16.000000,-56.000000,10.750000
6003010,-8.000000,-56.000000,10.750000
6003011,0.000000,-56.000000,10.750000
6003012,8.000000,-56.000000,10.750000
6003013,16.000000,-56.000000,10.750000
6003014,24.000000,-56.000000,10.750000
6003015,32.000000,-56.000000,10.750000
6003016,40.000000,-56.000000,10.750000
6003017,48.000000,-56.000000,10.750000
6003018,56.000000,-56.000000,10.750000
6003019,64.000000,-56.000000,10.750000
6003020,72.000000,-56.000000,10.750000
6003021,80.000000,-56.000000,10.750000
6004001,-80.000000,-48.000000,10.750000
6004002,-72.000000,-48.000000,10.750000
6004003,-64.000000,-48.000000,10.750000
6004004,-56.000000,-48.000000,10.750000
6004005,-48.000000,-48.000000,10.750000
6004006,-40.000000,-48.000000,10.750000
6004007,-32.000000,-48.000000,10.750000
6004008,-24.000000,-48.000000,10.750000
6004009,-16.000000,-48.000000,10.750000
6004013,16.000000,-48.000000,10.750000
6004014,24.000000,-48.000000,10.750000
6004015,32.000000,-48.000000,10.750000
6004016,40.000000,-48.000000,10.750000
6004017,48.000000,-48.000000,10.750000
6004018,56.000000,-48.000000,10.750000
6004019,64.000000,-48.000000,10.750000
6004020,72.000000,-48.000000,10.750000
6004021,80.000000,-48.000000,10.750000
6005001,-80.000000,-40.000000,10.750000
6005002,-72.000000,-40.000000,10.750000
6005003,-64.000000,-40.000000,10.750000
6005004,-56.000000,-40.000000,10.750000
6005005,-48.000000,-40.000000,10.750000
6005006,-40.000000,-40.000000,10.750000
6005007,-32.000000,-40.000000,10.750000
6005015,32.000000,-40.000000,10.750000
6005016,40.000000,-40.000000,10.750000
6005017,48.000000,-40.000000,10.750000
6005018,56.000000,-40.000000,10.750000
6005019,64.000000,-40.000000,10.750000
6005020,72.000000,-40.000000,10.750000
6005021,80.000000,-40.000000,10.750000
6006001,-80.000000,-32.000000,10.750000
6006002,-72.000000,-32.000000,10.750000
6006003,-64.000000,-32.000000,10.750000
6006004,-56.000000,-32.000000,10.750000
6006005,-48.000000,-32.000000,10.750000
6006006,-40.000000,-32.000000,10.750000
6006016,40.000000,-32.000000,10.750000
6006017,48.000000,-32.000000,10.750000
6006018,56.000000,-32.000000,10.750000
6006019,64.000000,-32.000000,10.750000
6006020,72.000000,-32.000000,10.750000
6006021,80.000000,-32.000000,10.750000
6007001,-80.000000,-24.000000,10.750000
6007002,-72.000000,-24.000000,10.750000
6007003,-64.000000,-24.000000,10.750000
6007004,-56.000000,-24.000000,10.750000
6007005,-48.000000,-24.000000,10.750000
6007017,48.000000,-24.000000,10.750000
6007018,56.000000,-24.000000,10.750000
6007019,64.000000,-24.000000,10.750000
6007020,72.000000,-24.000000,10.750000
6007021,80.000000,-24.000000,10.750000
6008001,-80.000000,-16.000000,10.750000
6008002,-72.000000,-16.000000,10.750000
6008003,-64.000000,-16.000000,10.750000
6008004,-56.000000,-16.000000,10.750000
6008005,-48.000000,-16.000000,10.750000
6008017,48.000000,-16.000000,10.750000
6008018,56.000000,-16.000000,10.750000
6008019,64.000000,-16.000000,10.750000
6008020,72.000000,-16.000000,10.750000
6008021,80.000000,-16.000000,10.750000
6009001,-80.000000,-8.000000,10.750000
6009002,-72.000000,-8.000000,10.750000
6009003,-64.000000,-8.000000,10.750000
6009004,-56.000000,-8.000000,10.750000
6009018,56.000000,-8.000000,10.750000
6009019,64.000000,-8.000000,10.750000
6009020,72.000000,-8.000000,10.750000
6009021,80.000000,-8.000000,10.750000
6010001,-80.000000,0.000000,10.750000
6010002,-72.000000,0.000000,10.750000
6010003,-64.000000,0.000000,10.750000
6010004,-56.000000,0.000000,10.750000
6010018,56.000000,0.000000,10.750000
6010019,64.000000,0.000000,10.750000
6010020,72.000000,0.000000,10.750000
6010021,80.000000,0.000000,10.750000
6011001,-80.000000,8.000000,10.750000
6011002,-72.000000,8.000000,10.750000
6011003,-64.000000,8.000000,10.750000
6011004,-56.000000,8.000000,10.750000
6011018,56.000000,8.000000,10.750000
6011019,64.000000,8.000000,10.750000
6011020,72.000000,8.000000,10.750000
6011021,80.000000,8.000000,10.750000
6012001,-80.000000,16.000000,10.750000
6012002,-72.000000,16.000000,10.750000
6012003,-64.000000,16.000000,10.750000
6012004,-56.000000,16.000000,10.750000
6012005,-48.000000,16.000000,10.750000
6012017,48.000000,16.000000,10.750000
6012018,56.000000,16.000000,10.750000
6012019,64.000000,16.000000,10.750000
6012020,72.000000,16.000000,10.750000
6012021,80.000000,16.000000,10.750000
6013001,-80.000000,24.000000,10.750000
6013002,-72.000000,24.000000,10.750000
6013003,-64.000000,24.000000,10.750000
6013004,-56.000000,24.000000,10.750000
6013005,-48.000000,24.000000,10.750000
6013017,48.000000,24.000000,10.750000
6013018,56.000000,24.000000,10.750000
6013019,64.000000,24.000000,10.750000
6013020,72.000000,24.000000,10.750000
6013021,80.000000,24.000000,10.750000
6014001,-80.000000,32.000000,10.750000
6014002,-72.000000,32.000000,10.750000
6014003,-64.000000,32.000000,10.750000
6014004,-56.000000,32.000000,10.750000
6014005,-48.000000,32.000000,10.750000
6014006,-40.000000,32.000000,10.750000
6014016,40.000000,32.000000,10.750000
6014017,48.000000,32.000000,10.750000
6014018,56.000000,32.000000,10.750000
6014019,64.000000,32.000000,10.750000
6014020,72.000000,32.000000,10.750000
6014021,80.000000,32.000000,10.750000
6015001,-80.000000,40.000000,10.750000
6015002,-72.000000,40.000000,10.750000
6015003,-64.000000,40.000000,10.750000
6015004,-56.000000,40.000000,10.750000
6015005,-48.000000,40.000000,10.750000
6015006,-40.000000,40.000000,10.750000
6015007,-32.000000,40.000000,10.750000
6015015,32.000000,40.000000,10.750000
6015016,40.000000,40.000000,10.750000
6015017,48.000000,40.000000,10.750000
6015018,56.000000,40.000000,10.750000
6015019,64.000000,40.000000,10.750000
6015020,72.000000,40.000000,10.750000
6015021,80.000000,40.000000,10.750000
6016001,-80.000000,48.000000,10.750000
6016002,-72.000000,48.000000,10.750000
6016003,-64.000000,48.000000,10.750000
6016004,-56.000000,48.000000,10.750000
6016005,-48.000000,48.000000,10.750000
6016006,-40.000000,48.000000,10.750000
6016007,-32.000000,48.000000,10.750000
6016008,-24.000000,48.000000,10.750000
6016009,-16.000000,48.000000,10.750000
6016013,16.000000,48.000000,10.750000
6016014,24.000000,48.000000,10.750000
6016015,32.000000,48.000000,10.750000
6016016,40.000000,48.000000,10.750000
6016017,48.000000,48.000000,10.750000
6016018,56.000000,48.000000,10.750000
6016019,64.000000,48.000000,10.750000
6016020,72.000000,48.000000,10.750000
6016021,80.000000,48.000000,10.750000
6017001,-80.000000,56.000000,10.750000
6017002,-72.000000,56.000000,10.750000
6017003,-64.000000,56.000000,10.750000
6017004,-56.000000,56.000000,10.750000
6017005,-48.000000,56.000000,10.750000
6017006,-40.000000,56.000000,10.750000
6017007,-32.000000,56.000000,10.750000
6017008,-24.000000,56.000000,10.750000
6017009,-16.000000,56.000000,10.750000
6017010,-8.000000,56.000000,10.750000
6017011,0.000000,56.000000,10.750000
6017012,8.000000,56.000000,10.750000
6017013,16.000000,56.000000,10.750000
6017014,24.000000,56.000000,10.750000
6017015,32.000000,56.000000,10.750000
6017016,40.000000,56.000000,10.750000
6017017,48.000000,56.000000,10.750000
6017018,56.000000,56.000000,10.750000
6017019,64.000000,56.000000,10.750000
6017020,72.000000,56.000000,10.750000
6017021,80.000000,56.000000,10.750000
6018001,-80.000000,64.000000,10.750000
6018002,-72.000000,64.000000,10.750000
6018003,-64.000000,64.000000,10.750000
6018004,-56.000000,64.000000,10.750000
6018005,-48.000000,64.000000,10.750000
6018006,-40.000000,64.000000,10.750000
6018007,-32.000000,64.000000,10.750000
6018008,-24.000000,64.000000,10.750000
6018009,-16.000000,64.000000,10.750000
6018010,-8.000000,64.000000,10.750000
6018011,0.000000,64.000000,10.750000
6018012,8.000000,64.000000,10.750000
6018013,16.000000,64.000000,10.750000
6018014,24.000000,64.000000,10.750000
6018015,32.000000,64.000000,10.750000
6018016,40.000000,64.000000,10.750000
6018017,48.000000,64.000000,10.750000
6018018,56.000000,64.000000,10.750000
6018019,64.000000,64.000000,10.750000
6018020,72.000000,64.000000,10.750000
6018021,80.000000,64.000000,10.750000
6019001,-80.000000,72.000000,10.750000
6019002,-72.000000,72.000000,10.750000
6019003,-64.000000,72.000000,10.750000
6019004,-56.000000,72.000000,10.750000
6019005,-48.000000,72.000000,10.750000
6019006,-40.000000,72.000000,10.750000
6019007,-32.000000,72.000000,10.750000
6019008,-24.000000,72.000000,10.750000
6019009,-16.000000,72.000000,10.750000
6019010,-8.000000,72.000000,10.750000
6019011,0.000000,72.000000,10.750000
6019012,8.000000,72.000000,10.750000
6019013,16.000000,72.000000,10.750000
6019014,24.000000,72.000000,10.750000
6019015,32.000000,72.000000,10.750000
6019016,40.000000,72.000000,10.750000
6019017,48.000000,72.000000,10.750000
6019018,56.000000,72.000000,10.750000
6019019,64.000000,72.000000,10.750000
6019020,72.000000,72.000000,10.750000
6019021,80.000000,72.000000,10.750000
6020001,-80.000000,80.000000,10.750000
6020002,-72.000000,80.000000,10.750000
6020003,-64.000000,80.000000,10.750000
6020004,-56.000000,80.000000,10.750000
6020005,-48.000000,80.000000,10.750000
6020006,-40.000000,80.000000,10.750000
6020007,-32.000000,80.000000,10.750000
6020008,-24.000000,80.000000,10.750000
6020009,-16.000000,80.000000,10.750000
6020010,-8.000000,80.000000,10.750000
6020011,0.000000,80.000000,10.750000
6020012,8.000000,80.000000,10.750000
6020013,16.000000,80.000000,10.750000
6020014,24.000000,80.000000,10.750000
6020015,32.000000,80.000000,10.750000
6020016,40.000000,80.000000,10.750000
6020017,48.000000,80.000000,10.750000
6020018,56.000000,80.000000,10.750000
6020019,64.000000,80.000000,10.750000
6020020,72.000000,80.000000,10.750000
6020021,80.000000,80.000000,10.750000
7000001,-80.000000,-80.000000,12.750000
7000002,-72.000000,-80.000000,12.750000
7000003,-64.000000,-80.000000,12.750000
7000004,-56.000000,-80.000000,12.750000
7000005,-48.000000,-80.000000,12.750000
7000006,-40.000000,-80.000000,12.750000
7000007,-32.000000,-80.000000,12.750000
7000008,-24.000000,-80.000000,12.750000
7000009,-16.000000,-80.000000,12.750000
7000010,-8.000000,-80.000000,12.750000
7000011,0.000000,-80.000000,12.750000
7000012,8.000000,-80.000000,12.750000
7000013,16.000000,-80.000000,12.750000
7000014,24.000000,-80.000000,12.750000
7000015,32.000000,-80.000000,12.750000
7000016,40.000000,-80.000000,12.750000
7000017,48.000000,-80.000000,12.750000
7000018,56.000000,-80.000000,12.750000
7000019,64.000000,-80.000000,12.750000
7000020,72.000000,-80.000000,12.750000
7000021,80.000000,-80.000000,12.750000
7001001,-80.000000,-72.000000,12.750000
7001002,-72.000000,-72.000000,12.750000
7001003,-64.000000,-72.000000,12.750000
7001004,-56.000000,-72.000000,12.750000
7001005,-48.000000,-72.000000,12.750000
7001006,-40.000000,-72.000000,12.750000
7001007,-32.000000,-72.000000,12.750000
7001008,-24.000000,-72.000000,12.750000
7001009,-16.000000,-72.000000,12.750000
7001010,-8.000000,-72.000000,12.750000
7001011,0.000000,-72.000000,12.750000
7001012,8.000000,-72.000000,12.750000
7001013,16.000000,-72.000000,12.750000
7001014,24.000000,-72.000000,12.750000
7001015,32.000000,-72.000000,12.750000
7001016,40.000000,-72.000000,12.750000
7001017,48.000000,-72.000000,12.750000
7001018,56.000000,-72.000000,12.750000
7001019,64.000000,-72.000000,12.750000
7001020,72.000000,-72.000000,12.750000
7001021,80.000000,-72.000000,12.750000
7002001,-80.000000,-64.000000,12.750000
7002002,-72.000000,-64.000000,12.750000
7002003,-64.000000,-64.000000,12.750000
7002004,-56.000000,-64.000000,12.750000
7002005,-48.000000,-64.000000,12.750000
7002006,-40.000000,-64.000000,12.750000
7002007,-32.000000,-64.000000,12.750000
7002008,-24.000000,-64.000000,12.750000
7002009,-16.000000,-64.000000,12.750000
7002010,-8.000000,-64.000000,12.750000
7002011,0.000000,-64.000000,12.750000
7002012,8.000000,-64.000000,12.750000
7002013,16.000000,-64.000000,12.750000
7002014,24.000000,-64.000000,12.750000
7002015,32.000000,-64.000000,12.750000
7002016,40.000000,-64.000000,12.750000
7002017,48.000000,-64.000000,12.750000
7002018,56.000000,-64.000000,12.750000
7002019,64.000000,-64.000000,12.750000
7002020,72.000000,-64.000000,12.750000
7002021,80.000000,-64.000000,12.750000
7003001,-80.000000,-56.000000,12.750000
7003002,-72.000000,-56.000000,12.750000
7003003,-64.000000,-56.000000,12.750000
7003004,-56.000000,-56.000000,12.750000
7003005,-48.000000,-56.000000,12.750000
7003006,-40.000000,-56.000000,12.750000
7003007,-32.000000,-56.000000,12.750000
7003008,-24.000000,-56.000000,12.750000
7003009,-16.000000,-56.000000,12.750000
7003010,-8.000000,-56.000000,12.750000
7003011,0.000000,-56.000000,12.750000
7003012,8.000000,-56.000000,12.750000
7003013,16.000000,-56.000000,12.750000
7003014,24.000000,-56.000000,12.750000
7003015,32.000000,-56.000000,12.750000
7003016,40.000000,-56.000000,12.750000
7003017,48.000000,-56.000000,12.750000
7003018,56.000000,-56.000000,12.750000
7003019,64.000000,-56.000000,12.750000
7003020,72.000000,-56.000000,12.750000
7003021,80.000000,-56.000000,12.750000
7004001,-80.000000,-48.000000,12.750000
7004002,-72.000000,-48.000000,12.750000
7004003,-64.000000,-48.000000,12.750000
7004004,-56.000000,-48.000000,12.750000
7004005,-48.000000,-48.000000,12.750000
7004006,-40.000000,-48.000000,12.750000
7004007,-32.000000,-48.000000,12.750000
7004008,-24.000000,-48.000000,12.750000
7004009,-16.000000,-48.000000,12.750000
7004013,16.000000,-48.000000,12.750000
7004014,24.000000,-48.000000,12.750000
7004015,32.000000,-48.000000,12.750000
7004016,40.000000,-48.000000,12.750000
7004017,48.000000,-48.000000,12.750000
7004018,56.000000,-48.000000,12.750000
7004019,64.000000,-48.000000,12.750000
7004020,72.000000,-48.000000,12.750000
7004021,80.000000,-48.000000,12.750000
7005001,-80.000000,-40.000000,12.750000
7005002,-72.000000,-40.000000,12.750000
7005003,-64.000000,-40.000000,12.750000
7005004,-56.000000,-40.000000,12.750000
7005005,-48.000000,-40.000000,12.750000
7005006,-40.000000,-40.000000,12.750000
7005007,-32.000000,-40.000000,12.750000
7005015,32.000000,-40.000000,12.750000
7005016,40.000000,-40.000000,12.750000
7005017,48.000000,-40.000000,12.750000
7005018,56.000000,-40.000000,12.750000
7005019,64.000000,-40.000000,12.750000
7005020,72.000000,-40.000000,12.750000
7005021,80.000000,-40.000000,12.750000
7006001,-80.000000,-32.000000,12.750000
7006002,-72.000000,-32.000000,12.750000
7006003,-64.000000,-32.000000,12.750000
7006004,-56.000000,-32.000000,12.750000
7006005,-48.000000,-32.000000,12.750000
7006006,-40.000000,-32.000000,12.750000
7006016,40.000000,-32.000000,12.750000
7006017,48.000000,-32.000000,12.750000
7006018,56.000000,-32.000000,12.750000
7006019,64.000000,-32.000000,12.750000
7006020,72.000000,-32.000000,12.750000
7006021,80.000000,-32.000000,12.750000
7007001,-80.000000,-24.000000,12.750000
7007002,-72.000000,-24.000000,12.750000
7007003,-64.000000,-24.000000,12.750000
7007004,-56.000000,-24.000000,12.750000
7007005,-48.000000,-24.000000,12.750000
7007017,48.000000,-24.000000,12.750000
7007018,56.000000,-24.000000,12.750000
7007019,64.000000,-24.000000,12.750000
7007020,72.000000,-24.000000,12.750000
7007021,80.000000,-24.000000,12.750000
7008001,-80.000000,-16.000000,12.750000
7008002,-72.000000,-16.000000,12.750000
7008003,-64.000000,-16.000000,12.750000
7008004,-56.000000,-16.000000,12.750000
7008005,-48.000000,-16.000000,12.750000
7008017,48.000000,-16.000000,12.750000
7008018,56.000000,-16.000000,12.750000
7008019,64.000000,-16.000000,12.750000
7008020,72.000000,-16.000000,12.750000
7008021,80.000000,-16.000000,12.750000
7009001,-80.000000,-8.000000,12.750000
7009002,-72.000000,-8.000000,12.750000
7009003,-64.000000,-8.000000,12.750000
7009004,-56.000000,-8.000000,12.750000
7009018,56.000000,-8.000000,12.750000
7009019,64.000000,-8.000000,12.750000
7009020,72.000000,-8.000000,12.750000
7009021,80.000000,-8.000000,12.750000
7010001,-80.000000,0.000000,12.750000
7010002,-72.000000,0.000000,12.750000
7010003,-64.000000,0.000000,12.750000
7010004,-56.000000,0.000000,12.750000
7010018,56.000000,0.000000,12.750000
7010019,64.000000,0.000000,12.750000
7010020,72.000000,0.000000,12.750000
7010021,80.000000,0.000000,12.750000
7011001,-80.000000,8.000000,12.750000
7011002,-72.000000,8.000000,12.750000
7011003,-64.000000,8.000000,12.750000
7011004,-56.000000,8.000000,12.750000
7011018,56.000000,8.000000,12.750000
7011019,64.000000,8.000000,12.750000
7011020,72.000000,8.000000,12.750000
7011021,80.000000,8.000000,12.750000
7012001,-80.000000,16.000000,12.750000
7012002,-72.000000,16.000000,12.750000
7012003,-64.000000,16.000000,12.750000
7012004,-56.000000,16.000000,12.750000
7012005,-48.000000,16.000000,12.750000
7012017,48.000000,16.000000,12.750000
7012018,56.000000,16.000000,12.750000
7012019,64.000000,16.000000,12.750000
7012020,72.000000,16.000000,12.750000
7012021,80.000000,16.000000,12.750000
7013001,-80.000000,24.000000,12.750000
7013002,-72.000000,24.000000,12.750000
7013003,-64.000000,24.000000,12.750000
7013004,-56.000000,24.000000,12.750000
7013005,-48.000000,24.000000,12.750000
7013017,48.000000,24.000000,12.750000
7013018,56.000000,24.000000,12.750000
7013019,64.000000,24.000000,12.750000
7013020,72.000000,24.000000,12.750000
7013021,80.000000,24.000000,12.750000
7014001,-80.000000,32.000000,12.750000
7014002,-72.000000,32.000000,12.750000
7014003,-64.000000,32.000000,12.750000
7014004,-56.000000,32.000000,12.750000
7014005,-48.000000,32.000000,12.750000
7014006,-40.000000,32.000000,12.750000
7014016,40.000000,32.000000,12.750000
7014017,48.000000,32.000000,12.750000
7014018,56.000000,32.000000,12.750000
7014019,64.000000,32.000000,12.750000
7014020,72.000000,32.000000,12.750000
7014021,80.000000,32.000000,12.750000
7015001,-80.000000,40.000000,12.750000
7015002,-72.000000,40.000000,12.750000
7015003,-64.000000,40.000000,12.750000
7015004,-56.000000,40.000000,12.750000
7015005,-48.000000,40.000000,12.750000
7015006,-40.000000,40.000000,12.750000
7015007,-32.000000,40.000000,12.750000
7015015,32.000000,40.000000,12.750000
7015016,40.000000,40.000000,12.750000
7015017,48.000000,40.000000,12.750000
7015018,56.000000,40.000000,12.750000
7015019,64.000000,40.000000,12.750000
7015020,72.000000,40.000000,12.750000
7015021,80.000000,40.000000,12.750000
7016001,-80.000000,48.000000,12.750000
7016002,-72.000000,48.000000,12.750000
7016003,-64.000000,48.000000,12.750000
7016004,-56.000000,48.000000,12.750000
7016005,-48.000000,48.000000,12.750000
7016006,-40.000000,48.000000,12.750000
7016007,-32.000000,48.000000,12.750000
7016008,-24.000000,48.000000,12.750000
7016009,-16.000000,48.000000,12.750000
7016013,16.000000,48.000000,12.750000
7016014,24.000000,48.000000,12.750000
7016015,32.000000,48.000000,12.750000
7016016,40.000000,48.000000,12.750000
7016017,48.000000,48.000000,12.750000
7016018,56.000000,48.000000,12.750000
7016019,64.000000,48.000000,12.750000
7016020,72.000000,48.000000,12.750000
7016021,80.000000,48.000000,12.750000
7017001,-80.000000,56.000000,12.750000
7017002,-72.000000,56.000000,12.750000
7017003,-64.000000,56.000000,12.750000
7017004,-56.000000,56.000000,12.750000
7017005,-48.000000,56.000000,12.750000
7017006,-40.000000,56.000000,12.750000
7017007,-32.000000,56.000000,12.750000
7017008,-24.000000,56.000000,12.750000
7017009,-16.000000,56.000000,12.750000
7017010,-8.000000,56.000000,12.750000
7017011,0.000000,56.000000,12.750000
7017012,8.000000,56.000000,12.750000
7017013,16.000000,56.000000,12.750000
7017014,24.000000,56.000000,12.750000
7017015,32.000000,56.000000,12.750000
7017016,40.000000,56.000000,12.750000
7017017,48.000000,56.000000,12.750000
7017018,56.000000,56.000000,12.750000
7017019,64.000000,56.000000,12.750000
7017020,72.000000,56.000000,12.750000
7017021,80.000000,56.000000,12.750000
7018001,-80.000000,64.000000,12.750000
7018002,-72.000000,64.000000,12.750000
7018003,-64.000000,64.000000,12.750000
7018004,-56.000000,64.000000,12.750000
7018005,-48.000000,64.000000,12.750000
7018006,-40.000000,64.000000,12.750000
7018007,-32.000000,64.000000,12.750000
7018008,-24.000000,64.000000,12.750000
7018009,-16.000000,64.000000,12.750000
7018010,-8.000000,64.000000,12.750000
7018011,0.000000,64.000000,12.750000
7018012,8.000000,64.000000,12.750000
7018013,16.000000,64.000000,12.750000
7018014,24.000000,64.000000,12.750000
7018015,32.000000,64.000000,12.750000
7018016,40.000000,64.000000,12.750000
7018017,48.000000,64.000000,12.750000
7018018,56.000000,64.000000,12.750000
7018019,64.000000,64.000000,12.750000
7018020,72.000000,64.000000,12.750000
7018021,80.000000,64.000000,12.750000
7019001,-80.000000,72.000000,12.750000
7019002,-72.000000,72.000000,12.750000
7019003,-64.000000,72.000000,12.750000
7019004,-56.000000,72.000000,12.750000
7019005,-48.000000,72.000000,12.750000
7019006,-40.000000,72.000000,12.750000
7019007,-32.000000,72.000000,12.750000
7019008,-24.000000,72.000000,12.750000
7019009,-16.000000,72.000000,12.750000
7019010,-8.000000,72.000000,12.750000
7019011,0.000000,72.000000,12.750000
7019012,8.000000,72.000000,12.750000
7019013,16.000000,72.000000,12.750000
7019014,24.000000,72.000000,12.750000
7019015,32.000000,72.000000,12.750000
7019016,40.000000,72.000000,12.750000
7019017,48.000000,72.000000,12.750000
7019018,56.000000,72.000000,12.750000
7019019,64.000000,72.000000,12.750000
7019020,72.000000,72.000000,12.750000
7019021,80.000000,72.000000,12.750000
7020001,-80.000000,80.000000,12.750000
7020002,-72.000000,80.000000,12.750000
7020003,-64.000000,80.000000,12.750000
7020004,-56.000000,80.000000,12.750000
7020005,-48.000000,80.000000,12.750000
7020006,-40.000000,80.000000,12.750000
7020007,-32.000000,80.000000,12.750000
7020008,-24.000000,80.000000,12.750000
7020009,-16.000000,80.000000,12.750000
7020010,-8.000000,80.000000,12.750000
7020011,0.000000,80.000000,12.750000
7020012,8.000000,80.000000,12.750000
7020013,16.000000,80.000000,12.750000
7020014,24.000000,80.000000,12.750000
7020015,32.000000,80.000000,12.750000
7020016,40.000000,80.000000,12.750000
7020017,48.000000,80.000000,12.750000
7020018,56.000000,80.000000,12.750000
7020019,64.000000,80.000000,12.750000
7020020,72.000000,80.000000,12.750000
7020021,80.000000,80.000000,12.750000
8000001,-80.000000,-80.000000,14.750000
8000002,-72.000000,-80.000000,14.750000
8000003,-64.000000,-80.000000,14.750000
8000004,-56.000000,-80.000000,14.750000
8000005,-48.000000,-80.000000,14.750000
8000006,-40.000000,-80.000000,14.750000
8000007,-32.000000,-80.000000,14.750000
8000008,-24.000000,-80.000000,14.750000
8000009,-16.000000,-80.000000,14.750000
8000010,-8.000000,-80.000000,14.750000
8000011,0.000000,-80.000000,14.750000
8000012,8.000000,-80.000000,14.750000
8000013,16.000000,-80.000000,14.750000
8000014,24.000000,-80.000000,14.750000
8000015,32.000000,-80.000000,14.750000
8000016,40.000000,-80.000000,14.750000
8000017,48.000000,-80.000000,14.750000
8000018,56.000000,-80.000000,14.750000
8000019,64.000000,-80.000000,14.750000
8000020,72.000000,-80.000000,14.750000
8000021,80.000000,-80.000000,14.750000
8001001,-80.000000,-72.000000,14.750000
8001002,-72.000000,-72.000000,14.750000
8001003,-64.000000,-72.000000,14.750000
8001004,-56.000000,-72.000000,14.750000
8001005,-48.000000,-72.000000,14.750000
8001006,-40.000000,-72.000000,14.750000
8001007,-32.000000,-72.000000,14.750000
8001008,-24.000000,-72.000000,14.750000
8001009,-16.000000,-72.000000,14.750000
8001010,-8.000000,-72.000000,14.750000
8001011,0.000000,-72.000000,14.750000
8001012,8.000000,-72.000000,14.750000
8001013,16.000000,-72.000000,14.750000
8001014,24.000000,-72.000000,14.750000
8001015,32.000000,-72.000000,14.750000
8001016,40.000000,-72.000000,14.750000
8001017,48.000000,-72.000000,14.750000
8001018,56.000000,-72.000000,14.750000
8001019,64.000000,-72.000000,14.750000
8001020,72.000000,-72.000000,14.750000
8001021,80.000000,-72.000000,14.750000
8002001,-80.000000,-64.000000,14.750000
8002002,-72.000000,-64.000000,14.750000
8002003,-64.000000,-64.000000,14.750000
8002004,-56.000000,-64.000000,14.750000
8002005,-48.000000,-64.000000,14.750000
8002006,-40.000000,-64.000000,14.750000
8002007,-32.000000,-64.000000,14.750000
8002008,-24.000000,-64.000000,14.750000
8002009,-16.000000,-64.000000,14.750000
8002010,-8.000000,-64.000000,14.750000
8002011,0.000000,-64.000000,14.750000
8002012,8.000000,-64.000000,14.750000
8002013,16.000000,-64.000000,14.750000
8002014,24.000000,-64.000000,14.750000
8002015,32.000000,-64.000000,14.750000
8002016,40.000000,-64.000000,14.750000
8002017,48.000000,-64.000000,14.750000
8002018,56.000000,-64.000000,14.750000
8002019,64.000000,-64.000000,14.750000
8002020,72.000000,-64.000000,14.750000
8002021,80.000000,-64.000000,14.750000
8003001,-80.000000,-56.000000,14.750000
8003002,-72.000000,-56.000000,14.750000
8003003,-64.000000,-56.000000,14.750000
8003004,-56.000000,-56.000000,14.750000
8003005,-48.000000,-56.000000,14.750000
8003006,-40.000000,-56.000000,14.750000
8003007,-32.000000,-56.000000,14.750000
8003008,-24.000000,-56.000000,14.750000
8003009,-16.000000,-56.000000,14.750000
8003010,-8.000000,-56.000000,14.750000
8003011,0.000000,-56.000000,14.750000
8003012,8.000000,-56.000000,14.750000
8003013,16.000000,-56.000000,14.750000
8003014,24.000000,-56.000000,14.750000
8003015,32.000000,-56.000000,14.750000
8003016,40.000000,-56.000000,14.750000
8003017,48.000000,-56.000000,14.750000
8003018,56.000000,-56.000000,14.750000
8003019,64.000000,-56.000000,14.750000
8003020,72.000000,-56.000000,14.750000
8003021,80.000000,-56.000000,14.750000
8004001,-80.000000,-48.000000,14.750000
8004002,-72.000000,-48.000000,14.750000
8004003,-64.000000,-48.000000,14.750000
8004004,-56.000000,-48.000000,14.750000
8004005,-48.000000,-48.000000,14.750000
8004006,-40.000000,-48.000000,14.750000
8004007,-32.000000,-48.000000,14.750000
8004008,-24.000000,-48.000000,14.750000
8004009,-16.000000,-48.000000,14.750000
8004013,16.000000,-48.000000,14.750000
8004014,24.000000,-48.000000,14.750000
8004015,32.000000,-48.000000,14.750000
8004016,40.000000,-48.000000,14.750000
8004017,48.000000,-48.000000,14.750000
8004018,56.000000,-48.000000,14.750000
8004019,64.000000,-48.000000,14.750000
8004020,72.000000,-48.000000,14.750000
8004021,80.000000,-48.000000,14.750000
8005001,-80.000000,-40.000000,14.750000
8005002,-72.000000,-40.000000,14.750000
8005003,-64.000000,-40.000000,14.750000
8005004,-56.000000,-40.000000,14.750000
8005005,-48.000000,-40.000000,14.750000
8005006,-40.000000,-40.000000,14.750000
8005007,-32.000000,-40.000000,14.750000
8005015,32.000000,-40.000000,14.750000
8005016,40.000000,-40.000000,14.750000
8005017,48.000000,-40.000000,14.750000
8005018,56.000000,-40.000000,14.750000
8005019,64.000000,-40.000000,14.750000
8005020,72.000000,-40.000000,14.750000
8005021,80.000000,-40.000000,14.750000
8006001,-80.000000,-32.000000,14.750000
8006002,-72.000000,-32.000000,14.750000
8006003,-64.000000,-32.000000,14.750000
8006004,-56.000000,-32.000000,14.750000
8006005,-48.000000,-32.000000,14.750000
8006006,-40.000000,-32.000000,14.750000
8006016,40.000000,-32.000000,14.750000
8006017,48.000000,-32.000000,14.750000
8006018,56.000000,-32.000000,14.750000
8006019,64.000000,-32.000000,14.750000
8006020,72.000000,-32.000000,14.750000
8006021,80.000000,-32.000000,14.750000
8007001,-80.000000,-24.000000,14.750000
8007002,-72.000000,-24.000000,14.750000
8007003,-64.000000,-24.000000,14.750000
8007004,-56.000000,-24.000000,14.750000
8007005,-48.000000,-24.000000,14.750000
8007017,48.000000,-24.000000,14.750000
8007018,56.000000,-24.000000,14.750000
8007019,64.000000,-24.000000,14.750000
8007020,72.000000,-24.000000,14.750000
8007021,80.000000,-24.000000,14.750000
8008001,-80.000000,-16.000000,14.750000
8008002,-72.000000,-16.000000,14.750000
8008003,-64.000000,-16.000000,14.750000
8008004,-56.000000,-16.000000,14.750000
8008005,-48.000000,-16.000000,14.750000
8008017,48.000000,-16.000000,14.750000
8008018,56.000000,-16.000000,14.750000
8008019,64.000000,-16.000000,14.750000
8008020,72.000000,-16.000000,14.750000
8008021,80.000000,-16.000000,14.750000
8009001,-80.000000,-8.000000,14.750000
8009002,-72.000000,-8.000000,14.750000
8009003,-64.000000,-8.000000,14.750000
8009004,-56.000000,-8.000000,14.750000
8009018,56.000000,-8.000000,14.750000
8009019,64.000000,-8.000000,14.750000
8009020,72.000000,-8.000000,14.750000
8009021,80.000000,-8.000000,14.750000
8010001,-80.000000,0.000000,14.750000
8010002,-72.000000,0.000000,14.750000
8010003,-64.000000,0.000000,14.750000
8010004,-56.000000,0.000000,14.750000
8010018,56.000000,0.000000,14.750000
8010019,64.000000,0.000000,14.750000
8010020,72.000000,0.000000,14.750000
8010021,80.000000,0.000000,14.750000
8011001,-80.000000,8.000000,14.750000
8011002,-72.000000,8.000000,14.750000
8011003,-64.000000,8.000000,14.750000
8011004,-56.000000,8.000000,14.750000
8011018,56.000000,8.000000,14.750000
8011019,64.000000,8.000000,14.750000
8011020,72.000000,8.000000,14.750000
8011021,80.000000,8.000000,14.750000
8012001,-80.000000,16.000000,14.750000
8012002,-72.000000,16.000000,14.750000
8012003,-64.000000,16.000000,14.750000
8012004,-56.000000,16.000000,14.750000
8012005,-48.000000,16.000000,14.750000
8012017,48.000000,16.000000,14.750000
8012018,56.000000,16.000000,14.750000
8012019,64.000000,16.000000,14.750000
8012020,72.000000,16.000000,14.750000
8012021,80.000000,16.000000,14.750000
8013001,-80.000000,24.000000,14.750000
8013002,-72.000000,24.000000,14.750000
8013003,-64.000000,24.000000,14.750000
8013004,-56.000000,24.000000,14.750000
8013005,-48.000000,24.000000,14.750000
8013017,48.000000,24.000000,14.750000
8013018,56.000000,24.000000,14.750000
8013019,64.000000,24.000000,14.750000
8013020,72.000000,24.000000,14.750000
8013021,80.000000,24.000000,14.750000
8014001,-80.000000,32.000000,14.750000
8014002,-72.000000,32.000000,14.750000
8014003,-64.000000,32.000000,14.750000
8014004,-56.000000,32.000000,14.750000
8014005,-48.000000,32.000000,14.750000
8014006,-40.000000,32.000000,14.750000
8014016,40.000000,32.000000,14.750000
8014017,48.000000,32.000000,14.750000
8014018,56.000000,32.000000,14.750000
8014019,64.000000,32.000000,14.750000
8014020,72.000000,32.000000,14.750000
8014021,80.000000,32.000000,14.750000
8015001,-80.000000,40.000000,14.750000
8015002,-72.000000,40.000000,14.750000
8015003,-64.000000,40.000000,14.750000
8015004,-56.000000,40.000000,14.750000
8015005,-48.000000,40.000000,14.750000
8015006,-40.000000,40.000000,14.750000
8015007,-32.000000,40.000000,14.750000
8015015,32.000000,40.000000,14.750000
8015016,40.000000,40.000000,14.750000
8015017,48.000000,40.000000,14.750000
8015018,56.000000,40.000000,14.750000
8015019,64.000000,40.000000,14.750000
8015020,72.000000,40.000000,14.750000
8015021,80.000000,40.000000,14.750000
8016001,-80.000000,48.000000,14.750000
8016002,-72.000000,48.000000,14.750000
8016003,-64.000000,48.000000,14.750000
8016004,-56.000000,48.000000,14.750000
8016005,-48.000000,48.000000,14.750000
8016006,-40.000000,48.000000,14.750000
8016007,-32.000000,48.000000,14.750000
8016008,-24.000000,48.000000,14.750000
8016009,-16.000000,48.000000,14.750000
8016013,16.000000,48.000000,14.750000
8016014,24.000000,48.000000,14.750000
8016015,32.000000,48.000000,14.750000
8016016,40.000000,48.000000,14.750000
8016017,48.000000,48.000000,14.750000
8016018,56.000000,48.000000,14.750000
8016019,64.000000,48.000000,14.750000
8016020,72.000000,48.000000,14.750000
8016021,80.000000,48.000000,14.750000
8017001,-80.000000,56.000000,14.750000
8017002,-72.000000,56.000000,14.750000
8017003,-64.000000,56.000000,14.750000
8017004,-56.000000,56.000000,14.750000
8017005,-48.000000,56.000000,14.750000
8017006,-40.000000,56.000000,14.750000
8017007,-32.000000,56.000000,14.750000
8017008,-24.000000,56.000000,14.750000
8017009,-16.000000,56.000000,14.750000
8017010,-8.000000,56.000000,14.750000
8017011,0.000000,56.000000,14.750000
8017012,8.000000,56.000000,14.750000
8017013,16.000000,56.000000,14.750000
8017014,24.000000,56.000000,14.750000
8017015,32.000000,56.000000,14.750000
8017016,40.000000,56.000000,14.750000
8017017,48.000000,56.000000,14.750000
8017018,56.000000,56.000000,14.750000
8017019,64.000000,56.000000,14.750000
8017020,72.000000,56.000000,14.750000
8017021,80.000000,56.000000,14.750000
8018001,-80.000000,64.000000,14.750000
8018002,-72.000000,64.000000,14.750000
8018003,-64.000000,64.000000,14.750000
8018004,-56.000000,64.000000,14.750000
8018005,-48.000000,64.000000,14.750000
8018006,-40.000000,64.000000,14.750000
8018007,-32.000000,64.000000,14.750000
8018008,-24.000000,64.000000,14.750000
8018009,-16.000000,64.000000,14.750000
8018010,-8.000000,64.000000,14.750000
8018011,0.000000,64.000000,14.750000
8018012,8.000000,64.000000,14.750000
8018013,16.000000,64.000000,14.750000
8018014,24.000000,64.000000,14.750000
8018015,32.000000,64.000000,14.750000
8018016,40.000000,64.000000,14.750000
8018017,48.000000,64.000000,14.750000
8018018,56.000000,64.000000,14.750000
8018019,64.000000,64.000000,14.750000
8018020,72.000000,64.000000,14.750000
8018021,80.000000,64.000000,14.750000
8019001,-80.000000,72.000000,14.750000
8019002,-72.000000,72.000000,14.750000
8019003,-64.000000,72.000000,14.750000
8019004,-56.000000,72.000000,14.750000
8019005,-48.000000,72.000000,14.750000
8019006,-40.000000,72.000000,14.750000
8019007,-32.000000,72.000000,14.750000
8019008,-24.000000,72.000000,14.750000
8019009,-16.000000,72.000000,14.750000
8019010,-8.000000,72.000000,14.750000
8019011,0.000000,72.000000,14.750000
8019012,8.000000,72.000000,14.750000
8019013,16.000000,72.000000,14.750000
8019014,24.000000,72.000000,14.750000
8019015,32.000000,72.000000,14.750000
8019016,40.000000,72.000000,14.750000
8019017,48.000000,72.000000,14.750000
8019018,56.000000,72.000000,14.750000
8019019,64.000000,72.000000,14.750000
8019020,72.000000,72.000000,14.750000
8019021,80.000000,72.000000,14.750000
8020001,-80.000000,80.000000,14.750000
8020002,-72.000000,80.000000,14.750000
8020003,-64.000000,80.000000,14.750000
8020004,-56.000000,80.000000,14.750000
8020005,-48.000000,80.000000,14.750000
8020006,-40.000000,80.000000,14.750000
8020007,-32.000000,80.000000,14.750000
8020008,-24.000000,80.000000,14.750000
8020009,-16.000000,80.000000,14.750000
8020010,-8.000000,80.000000,14.750000
8020011,0.000000,80.000000,14.750000
8020012,8.000000,80.000000,14.750000
8020013,16.000000,80.000000,14.750000
8020014,24.000000,80.000000,14.750000
8020015,32.000000,80.000000,14.750000
8020016,40.000000,80.000000,14.750000
8020017,48.000000,80.000000,14.750000
8020018,56.000000,80.000000,14.750000
8020019,64.000000,80.000000,14.750000
8020020,72.000000,80.000000,14.750000
8020021,80.000000,80.000000,14.750000
9000001,-80.000000,-80.000000,16.750000
9000002,-72.000000,-80.000000,16.750000
9000003,-64.000000,-80.000000,16.750000
9000004,-56.000000,-80.000000,16.750000
9000005,-48.000000,-80.000000,16.750000
9000006,-40.000000,-80.000000,16.750000
9000007,-32.000000,-80.000000,16.750000
9000008,-24.000000,-80.000000,16.750000
9000009,-16.000000,-80.000000,16.750000
9000010,-8.000000,-80.000000,16.750000
9000011,0.000000,-80.000000,16.750000
9000012,8.000000,-80.000000,16.750000
9000013,16.000000,-80.000000,16.750000
9000014,24.000000,-80.000000,16.750000
9000015,32.000000,-80.000000,16.750000
9000016,40.000000,-80.000000,16.750000
9000017,48.000000,-80.000000,16.750000
9000018,56.000000,-80.000000,16.750000
9000019,64.000000,-80.000000,16.750000
9000020,72.000000,-80.000000,16.750000
9000021,80.000000,-80.000000,16.750000
9001001,-80.000000,-72.000000,16.750000
9001002,-72.000000,-72.000000,16.750000
9001003,-64.000000,-72.000000,16.750000
9001004,-56.000000,-72.000000,16.750000
9001005,-48.000000,-72.000000,16.750000
9001006,-40.000000,-72.000000,16.750000
9001007,-32.000000,-72.000000,16.750000
9001008,-24.000000,-72.000000,16.750000
9001009,-16.000000,-72.000000,16.750000
9001010,-8.000000,-72.000000,16.750000
9001011,0.000000,-72.000000,16.750000
9001012,8.000000,-72.000000,16.750000
9001013,16.000000,-72.000000,16.750000
9001014,24.000000,-72.000000,16.750000
9001015,32.000000,-72.000000,16.750000
9001016,40.000000,-72.000000,16.750000
9001017,48.000000,-72.000000,16.750000
9001018,56.000000,-72.000000,16.750000
9001019,64.000000,-72.000000,16.750000
9001020,72.000000,-72.000000,16.750000
9001021,80.000000,-72.000000,16.750000
9002001,-80.000000,-64.000000,16.750000
9002002,-72.000000,-64.000000,16.750000
9002003,-64.000000,-64.000000,16.750000
9002004,-56.000000,-64.000000,16.750000
9002005,-48.000000,-64.000000,16.750000
9002006,-40.000000,-64.000000,16.750000
9002007,-32.000000,-64.000000,16.750000
9002008,-24.000000,-64.000000,16.750000
9002009,-16.000000,-64.000000,16.750000
9002010,-8.000000,-64.000000,16.750000
9002011,0.000000,-64.000000,16.750000
9002012,8.000000,-64.000000,16.750000
9002013,16.000000,-64.000000,16.750000
9002014,24.000000,-64.000000,16.750000
9002015,32.000000,-64.000000,16.750000
9002016,40.000000,-64.000000,16.750000
9002017,48.000000,-64.000000,16.750000
9002018,56.000000,-64.000000,16.750000
9002019,64.000000,-64.000000,16.750000
9002020,72.000000,-64.000000,16.750000
9002021,80.000000,-64.000000,16.750000
9003001,-80.000000,-56.000000,16.750000
9003002,-72.000000,-56.000000,16.750000
9003003,-64.000000,-56.000000,16.750000
9003004,-56.000000,-56.000000,16.750000
9003005,-48.000000,-56.000000,16.750000
9003006,-40.000000,-56.000000,16.750000
9003007,-32.000000,-56.000000,16.750000
9003008,-24.000000,-56.000000,16.750000
9003009,-16.000000,-56.000000,16.750000
9003010,-8.000000,-56.000000,16.750000
9003011,0.000000,-56.000000,16.750000
9003012,8.000000,-56.000000,16.750000
9003013,16.000000,-56.000000,16.750000
9003014,24.000000,-56.000000,16.750000
9003015,32.000000,-56.000000,16.750000
9003016,40.000000,-56.000000,16.750000
9003017,48.000000,-56.000000,16.750000
9003018,56.000000,-56.000000,16.750000
9003019,64.000000,-56.000000,16.750000
9003020,72.000000,-56.000000,16.750000
9003021,80.000000,-56.000000,16.750000
9004001,-80.000000,-48.000000,16.750000
9004002,-72.000000,-48.000000,16.750000
9004003,-64.000000,-48.000000,16.750000
9004004,-56.000000,-48.000000,16.750000
9004005,-48.000000,-48.000000,16.750000
9004006,-40.000000,-48.000000,16.750000
9004007,-32.000000,-48.000000,16.750000
9004008,-24.000000,-48.000000,16.750000
9004009,-16.000000,-48.000000,16.750000
9004013,16.000000,-48.000000,16.750000
9004014,24.000000,-48.000000,16.750000
9004015,32.000000,-48.000000,16.750000
9004016,40.000000,-48.000000,16.750000
9004017,48.000000,-48.000000,16.750000
9004018,56.000000,-48.000000,16.750000
9004019,64.000000,-48.000000,16.750000
9004020,72.000000,-48.000000,16.750000
9004021,80.000000,-48.000000,16.750000
9005001,-80.000000,-40.000000,16.750000
9005002,-72.000000,-40.000000,16.750000
9005003,-64.000000,-40.000000,16.750000
9005004,-56.000000,-40.000000,16.750000
9005005,-48.000000,-40.000000,16.750000
9005006,-40.000000,-40.000000,16.750000
9005007,-32.000000,-40.000000,16.750000
9005015,32.000000,-40.000000,16.750000
9005016,40.000000,-40.000000,16.750000
9005017,48.000000,-40.000000,16.750000
9005018,56.000000,-40.000000,16.750000
9005019,64.000000,-40.000000,16.750000
9005020,72.000000,-40.000000,16.750000
9005021,80.000000,-40.000000,16.750000
9006001,-80.000000,-32.000000,16.750000
9006002,-72.000000,-32.000000,16.750000
9006003,-64.000000,-32.000000,16.750000
9006004,-56.000000,-32.000000,16.750000
9006005,-48.000000,-32.000000,16.750000
9006006,-40.000000,-32.000000,16.750000
9006016,40.000000,-32.000000,16.750000
9006017,48.000000,-32.000000,16.750000
9006018,56.000000,-32.000000,16.750000
9006019,64.000000,-32.000000,16.750000
9006020,72.000000,-32.000000,16.750000
9006021,80.000000,-32.000000,16.750000
9007001,-80.000000,-24.000000,16.750000
9007002,-72.000000,-24.000000,16.750000
9007003,-64.000000,-24.000000,16.750000
9007004,-56.000000,-24.000000,16.750000
9007005,-48.000000,-24.000000,16.750000
9007017,48.000000,-24.000000,16.750000
9007018,56.000000,-24.000000,16.750000
9007019,64.000000,-24.000000,16.750000
9007020,72.000000,-24.000000,16.750000
9007021,80.000000,-24.000000,16.750000
9008001,-80.000000,-16.000000,16.750000
9008002,-72.000000,-16.000000,16.750000
9008003,-64.000000,-16.000000,16.750000
9008004,-56.000000,-16.000000,16.750000
9008005,-48.000000,-16.000000,16.750000
9008017,48.000000,-16.000000,16.750000
9008018,56.000000,-16.000000,16.750000
9008019,64.000000,-16.000000,16.750000
9008020,72.000000,-16.000000,16.750000
9008021,80.000000,-16.000000,16.750000
9009001,-80.000000,-8.000000,16.750000
9009002,-72.000000,-8.000000,16.750000
9009003,-64.000000,-8.000000,16.750000
9009004,-56.000000,-8.000000,16.750000
9009018,56.000000,-8.000000,16.750000
9009019,64.000000,-8.000000,16.750000
9009020,72.000000,-8.000000,16.750000
9009021,80.000000,-8.000000,16.750000
9010001,-80.000000,0.000000,16.750000
9010002,-72.000000,0.000000,16.750000
9010003,-64.000000,0.000000,16.750000
9010004,-56.000000,0.000000,16.750000
9010018,56.000000,0.000000,16.750000
9010019,64.000000,0.000000,16.750000
9010020,72.000000,0.000000,16.750000
9010021,80.000000,0.000000,16.750000
9011001,-80.000000,8.000000,16.750000
9011002,-72.000000,8.000000,16.750000
9011003,-64.000000,8.000000,16.750000
9011004,-56.000000,8.000000,16.750000
9011018,56.000000,8.000000,16.750000
9011019,64.000000,8.000000,16.750000
9011020,72.000000,8.000000,16.750000
9011021,80.000000,8.000000,16.750000
9012001,-80.000000,16.000000,16.750000
9012002,-72.000000,16.000000,16.750000
9012003,-64.000000,16.000000,16.750000
9012004,-56.000000,16.000000,16.750000
9012005,-48.000000,16.000000,16.750000
9012017,48.000000,16.000000,16.750000
9012018,56.000000,16.000000,16.750000
9012019,64.000000,16.000000,16.750000
9012020,72.000000,16.000000,16.750000
9012021,80.000000,16.000000,16.750000
9013001,-80.000000,24.000000,16.750000
9013002,-72.000000,24.000000,16.750000
9013003,-64.000000,24.000000,16.750000
9013004,-56.000000,24.000000,16.750000
9013005,-48.000000,24.000000,16.750000
9013017,48.000000,24.000000,16.750000
9013018,56.000000,24.000000,16.750000
9013019,64.000000,24.000000,16.750000
9013020,72.000000,24.000000,16.750000
9013021,80.000000,24.000000,16.750000
9014001,-80.000000,32.000000,16.750000
9014002,-72.000000,32.000000,16.750000
9014003,-64.000000,32.000000,16.750000
9014004,-56.000000,32.000000,16.750000
9014005,-48.000000,32.000000,16.750000
9014006,-40.000000,32.000000,16.750000
9014016,40.000000,32.000000,16.750000
9014017,48.000000,32.000000,16.750000
9014018,56.000000,32.000000,16.750000
9014019,64.000000,32.000000,16.750000
9014020,72.000000,32.000000,16.750000
9014021,80.000000,32.000000,16.750000
9015001,-80.000000,40.000000,16.750000
9015002,-72.000000,40.000000,16.750000
9015003,-64.000000,40.000000,16.750000
9015004,-56.000000,40.000000,16.750000
9015005,-48.000000,40.000000,16.750000
9015006,-40.000000,40.000000,16.750000
9015007,-32.000000,40.000000,16.750000
9015015,32.000000,40.000000,16.750000
9015016,40.000000,40.000000,16.750000
9015017,48.000000,40.000000,16.750000
9015018,56.000000,40.000000,16.750000
9015019,64.000000,40.000000,16.750000
9015020,72.000000,40.000000,16.750000
9015021,80.000000,40.000000,16.750000
9016001,-80.000000,48.000000,16.750000
9016002,-72.000000,48.000000,16.750000
9016003,-64.000000,48.000000,16.750000
9016004,-56.000000,48.000000,16.750000
9016005,-48.000000,48.000000,16.750000
9016006,-40.000000,48.000000,16.750000
9016007,-32.000000,48.000000,16.750000
9016008,-24.000000,48.000000,16.750000
9016009,-16.000000,48.000000,16.750000
9016013,16.000000,48.000000,16.750000
9016014,24.000000,48.000000,16.750000
9016015,32.000000,48.000000,16.750000
9016016,40.000000,48.000000,16.750000
9016017,48.000000,48.000000,16.750000
9016018,56.000000,48.000000,16.750000
9016019,64.000000,48.000000,16.750000
9016020,72.000000,48.000000,16.750000
9016021,80.000000,48.000000,16.750000
9017001,-80.000000,56.000000,16.750000
9017002,-72.000000,56.000000,16.750000
9017003,-64.000000,56.000000,16.750000
9017004,-56.000000,56.000000,16.750000
9017005,-48.000000,56.000000,16.750000
9017006,-40.000000,56.000000,16.750000
9017007,-32.000000,56.000000,16.750000
9017008,-24.000000,56.000000,16.750000
9017009,-16.000000,56.000000,16.750000
9017010,-8.000000,56.000000,16.750000
9017011,0.000000,56.000000,16.750000
9017012,8.000000,56.000000,16.750000
9017013,16.000000,56.000000,16.750000
9017014,24.000000,56.000000,16.750000
9017015,32.000000,56.000000,16.750000
9017016,40.000000,56.000000,16.750000
9017017,48.000000,56.000000,16.750000
9017018,56.000000,56.000000,16.750000
9017019,64.000000,56.000000,16.750000
9017020,72.000000,56.000000,16.750000
9017021,80.000000,56.000000,16.750000
9018001,-80.000000,64.000000,16.750000
9018002,-72.000000,64.000000,16.750000
9018003,-64.000000,64.000000,16.750000
9018004,-56.000000,64.000000,16.750000
9018005,-48.000000,64.000000,16.750000
9018006,-40.000000,64.000000,16.750000
9018007,-32.000000,64.000000,16.750000
9018008,-24.000000,64.000000,16.750000
9018009,-16.000000,64.000000,16.750000
9018010,-8.000000,64.000000,16.750000
9018011,0.000000,64.000000,16.750000
9018012,8.000000,64.000000,16.750000
9018013,16.000000,64.000000,16.750000
9018014,24.000000,64.000000,16.750000
9018015,32.000000,64.000000,16.750000
9018016,40.000000,64.000000,16.750000
9018017,48.000000,64.000000,16.750000
9018018,56.000000,64.000000,16.750000
9018019,64.000000,64.000000,16.750000
9018020,72.000000,64.000000,16.750000
9018021,80.000000,64.000000,16.750000
9019001,-80.000000,72.000000,16.750000
9019002,-72.000000,72.000000,16.750000
9019003,-64.000000,72.000000,16.750000
9019004,-56.000000,72.000000,16.750000
9019005,-48.000000,72.000000,16.750000
9019006,-40.000000,72.000000,16.750000
9019007,-32.000000,72.000000,16.750000
9019008,-24.000000,72.000000,16.750000
9019009,-16.000000,72.000000,16.750000
9019010,-8.000000,72.000000,16.750000
9019011,0.000000,72.000000,16.750000
9019012,8.000000,72.000000,16.750000
9019013,16.000000,72.000000,16.750000
9019014,24.000000,72.000000,16.750000
9019015,32.000000,72.000000,16.750000
9019016,40.000000,72.000000,16.750000
9019017,48.000000,72.000000,16.750000
9019018,56.000000,72.000000,16.750000
9019019,64.000000,72.000000,16.750000
9019020,72.000000,72.000000,16.750000
9019021,80.000000,72.000000,16.750000
9020001,-80.000000,80.000000,16.750000
9020002,-72.000000,80.000000,16.750000
9020003,-64.000000,80.000000,16.750000
9020004,-56.000000,80.000000,16.750000
9020005,-48.000000,80.000000,16.750000
9020006,-40.000000,80.000000,16.750000
9020007,-32.000000,80.000000,16.750000
9020008,-24.000000,80.000000,16.750000
9020009,-16.000000,80.000000,16.750000
9020010,-8.000000,80.000000,16.750000
9020011,0.000000,80.000000,16.750000
9020012,8.000000,80.000000,16.750000
9020013,16.000000,80.000000,16.750000
9020014,24.000000,80.000000,16.750000
9020015,32.000000,80.000000,16.750000
9020016,40.000000,80.000000,16.750000
9020017,48.000000,80.000000,16.750000
9020018,56.000000,80.000000,16.750000
9020019,64.000000,80.000000,16.750000
9020020,72.000000,80.000000,16.750000
9020021,80.000000,80.000000,16.750000
10000001,-80.000000,-80.000000,18.750000
10000002,-72.000000,-80.000000,18.750000
10000003,-64.000000,-80.000000,18.750000
10000004,-56.000000,-80.000000,18.750000
10000005,-48.000000,-80.000000,18.750000
10000006,-40.000000,-80.000000,18.750000
10000007,-32.000000,-80.000000,18.750000
10000008,-24.000000,-80.000000,18.750000
10000009,-16.000000,-80.000000,18.750000
10000010,-8.000000,-80.000000,18.750000
10000011,0.000000,-80.000000,18.750000
10000012,8.000000,-80.000000,18.750000
10000013,16.000000,-80.000000,18.750000
10000014,24.000000,-80.000000,18.750000
10000015,32.000000,-80.000000,18.750000
10000016,40.000000,-80.000000,18.750000
10000017,48.000000,-80.000000,18.750000
10000018,56.000000,-80.000000,18.750000
10000019,64.000000,-80.000000,18.750000
10000020,72.000000,-80.000000,18.750000
10000021,80.000000,-80.000000,18.750000
10001001,-80.000000,-72.000000,18.750000
10001002,-72.000000,-72.000000,18.750000
10001003,-64.000000,-72.000000,18.750000
10001004,-56.000000,-72.000000,18.750000
10001005,-48.000000,-72.000000,18.750000
10001006,-40.000000,-72.000000,18.750000
10001007,-32.000000,-72.000000,18.750000
10001008,-24.000000,-72.000000,18.750000
10001009,-16.000000,-72.000000,18.750000
10001010,-8.000000,-72.000000,18.750000
10001011,0.000000,-72.000000,18.750000
10001012,8.000000,-72.000000,18.750000
10001013,16.000000,-72.000000,18.750000
10001014,24.000000,-72.000000,18.750000
10001015,32.000000,-72.000000,18.750000
10001016,40.000000,-72.000000,18.750000
10001017,48.000000,-72.000000,18.750000
10001018,56.000000,-72.000000,18.750000
10001019,64.000000,-72.000000,18.750000
10001020,72.000000,-72.000000,18.750000
10001021,80.000000,-72.000000,18.750000
10002001,-80.000000,-64.000000,18.750000
10002002,-72.000000,-64.000000,18.750000
10002003,-64.000000,-64.000000,18.750000
10002004,-56.000000,-64.000000,18.750000
10002005,-48.000000,-64.000000,18.750000
10002006,-40.000000,-64.000000,18.750000
10002007,-32.000000,-64.000000,18.750000
10002008,-24.000000,-64.000000,18.750000
10002009,-16.000000,-64.000000,18.750000
10002010,-8.000000,-64.000000,18.750000
10002011,0.000000,-64.000000,18.750000
10002012,8.000000,-64.000000,18.750000
10002013,16.000000,-64.000000,18.750000
10002014,24.000000,-64.000000,18.750000
10002015,32.000000,-64.000000,18.750000
10002016,40.000000,-64.000000,18.750000
10002017,48.000000,-64.000000,18.750000
10002018,56.000000,-64.000000,18.750000
10002019,64.000000,-64.000000,18.750000
10002020,72.000000,-64.000000,18.750000
10002021,80.000000,-64.000000,18.750000
10003001,-80.000000,-56.000000,18.750000
10003002,-72.000000,-56.000000,18.750000
10003003,-64.000000,-56.000000,18.750000
10003004,-56.000000,-56.000000,18.750000
10003005,-48.000000,-56.000000,18.750000
10003006,-40.000000,-56.000000,18.750000
10003007,-32.000000,-56.000000,18.750000
10003008,-24.000000,-56.000000,18.750000
10003009,-16.000000,-56.000000,18.750000
10003010,-8.000000,-56.000000,18.750000
10003011,0.000000,-56.000000,18.750000
10003012,8.000000,-56.000000,18.750000
10003013,16.000000,-56.000000,18.750000
10003014,24.000000,-56.000000,18.750000
10003015,32.000000,-56.000000,18.750000
10003016,40.000000,-56.000000,18.750000
10003017,48.000000,-56.000000,18.750000
10003018,56.000000,-56.000000,18.750000
10003019,64.000000,-56.000000,18.750000
10003020,72.000000,-56.000000,18.750000
10003021,80.000000,-56.000000,18.750000
10004001,-80.000000,-48.000000,18.750000
10004002,-72.000000,-48.000000,18.750000
10004003,-64.000000,-48.000000,18.750000
10004004,-56.000000,-48.000000,18.750000
10004005,-48.000000,-48.000000,18.750000
10004006,-40.000000,-48.000000,18.750000
10004007,-32.000000,-48.000000,18.750000
10004008,-24.000000,-48.000000,18.750000
10004009,-16.000000,-48.000000,18.750000
10004010,-8.000000,-48.000000,18.750000
10004011,0.000000,-48.000000,18.750000
10004012,8.000000,-48.000000,18.750000
10004013,16.000000,-48.000000,18.750000
10004014,24.000000,-48.000000,18.750000
10004015,32.000000,-48.000000,18.750000
10004016,40.000000,-48.000000,18.750000
10004017,48.000000,-48.000000,18.750000
10004018,56.000000,-48.000000,18.750000
10004019,64.000000,-48.000000,18.750000
10004020,72.000000,-48.000000,18.750000
10004021,80.000000,-48.000000,18.750000
10005001,-80.000000,-40.000000,18.750000
10005002,-72.000000,-40.000000,18.750000
10005003,-64.000000,-40.000000,18.750000
10005004,-56.000000,-40.000000,18.750000
10005005,-48.000000,-40.000000,18.750000
10005006,-40.000000,-40.000000,18.750000
10005007,-32.000000,-40.000000,18.750000
10005008,-24.000000,-40.000000,18.750000
10005009,-16.000000,-40.000000,18.750000
10005010,-8.000000,-40.000000,18.750000
10005011,0.000000,-40.000000,18.750000
10005012,8.000000,-40.000000,18.750000
10005013,16.000000,-40.000000,18.750000
10005014,24.000000,-40.000000,18.750000
10005015,32.000000,-40.000000,18.750000
10005016,40.000000,-40.000000,18.750000
10005017,48.000000,-40.000000,18.750000
10005018,56.000000,-40.000000,18.750000
10005019,64.000000,-40.000000,18.750000
10005020,72.000000,-40.000000,18.750000
10005021,80.000000,-40.000000,18.750000
10006001,-80.000000,-32.000000,18.750000
10006002,-72.000000,-32.000000,18.750000
10006003,-64.000000,-32.000000,18.750000
10006004,-56.000000,-32.000000,18.750000
10006005,-48.000000,-32.000000,18.750000
10006006,-40.000000,-32.000000,18.750000
10006007,-32.000000,-32.000000,18.750000
10006008,-24.000000,-32.000000,18.750000
10006009,-16.000000,-32.000000,18.750000
10006010,-8.000000,-32.000000,18.750000
10006011,0.000000,-32.000000,18.750000
10006012,8.000000,-32.000000,18.750000
10006013,16.000000,-32.000000,18.750000
10006014,24.000000,-32.000000,18.750000
10006015,32.000000,-32.000000,18.750000
10006016,40.000000,-32.000000,18.750000
10006017,48.000000,-32.000000,18.750000
10006018,56.000000,-32.000000,18.750000
10006019,64.000000,-32.000000,18.750000
10006020,72.000000,-32.000000,18.750000
10006021,80.000000,-32.000000,18.750000
10007001,-80.000000,-24.000000,18.750000
10007002,-72.000000,-24.000000,18.750000
10007003,-64.000000,-24.000000,18.750000
10007004,-56.000000,-24.000000,18.750000
10007005,-48.000000,-24.000000,18.750000
10007006,-40.000000,-24.000000,18.750000
10007007,-32.000000,-24.000000,18.750000
10007008,-24.000000,-24.000000,18.750000
10007009,-16.000000,-24.000000,18.750000
10007010,-8.000000,-24.000000,18.750000
10007011,0.000000,-24.000000,18.750000
10007012,8.000000,-24.000000,18.750000
10007013,16.000000,-24.000000,18.750000
10007014,24.000000,-24.000000,18.750000
10007015,32.000000,-24.000000,18.750000
10007016,40.000000,-24.000000,18.750000
10007017,48.000000,-24.000000,18.750000
10007018,56.000000,-24.000000,18.750000
10007019,64.000000,-24.000000,18.750000
10007020,72.000000,-24.000000,18.750000
10007021,80.000000,-24.000000,18.750000
10008001,-80.000000,-16.000000,18.750000
10008002,-72.000000,-16.000000,18.750000
10008003,-64.000000,-16.000000,18.750000
10008004,-56.000000,-16.000000,18.750000
10008005,-48.000000,-16.000000,18.750000
10008006,-40.000000,-16.000000,18.750000
10008007,-32.000000,-16.000000,18.750000
10008008,-24.000000,-16.000000,18.750000
10008009,-16.000000,-16.000000,18.750000
10008010,-8.000000,-16.000000,18.750000
10008011,0.000000,-16.000000,18.750000
10008012,8.000000,-16.000000,18.750000
10008013,16.000000,-16.000000,18.750000
10008014,24.000000,-16.000000,18.750000
10008015,32.000000,-16.000000,18.750000
10008016,40.000000,-16.000000,18.750000
10008017,48.000000,-16.000000,18.750000
10008018,56.000000,-16.000000,18.750000
10008019,64.000000,-16.000000,18.750000
10008020,72.000000,-16.000000,18.750000
10008021,80.000000,-16.000000,18.750000
10009001,-80.000000,-8.000000,18.750000
10009002,-72.000000,-8.000000,18.750000
10009003,-64.000000,-8.000000,18.750000
10009004,-56.000000,-8.000000,18.750000
10009005,-48.000000,-8.000000,18.750000
10009006,-40.000000,-8.000000,18.750000
10009007,-32.000000,-8.000000,18.750000
10009008,-24.000000,-8.000000,18.750000
10009009,-16.000000,-8.000000,18.750000
10009010,-8.000000,-8.000000,18.750000
10009011,0.000000,-8.000000,18.750000
10009012,8.000000,-8.000000,18.750000
10009013,16.000000,-8.000000,18.750000
10009014,24.000000,-8.000000,18.750000
10009015,32.000000,-8.000000,18.750000
10009016,40.000000,-8.000000,18.750000
10009017,48.000000,-8.000000,18.750000
10009018,56.000000,-8.000000,18.750000
10009019,64.000000,-8.000000,18.750000
10009020,72.000000,-8.000000,18.750000
10009021,80.000000,-8.000000,18.750000
10010001,-80.000000,0.000000,18.750000
10010002,-72.000000,0.000000,18.750000
10010003,-64.000000,0.000000,18.750000
10010004,-56.000000,0.000000,18.750000
10010005,-48.000000,0.000000,18.750000
10010006,-40.000000,0.000000,18.750000
10010007,-32.000000,0.000000,18.750000
10010008,-24.000000,0.000000,18.750000
10010009,-16.000000,0.000000,18.750000
10010010,-8.000000,0.000000,18.750000
10010011,0.000000,0.000000,18.750000
10010012,8.000000,0.000000,18.750000
10010013,16.000000,0.000000,18.750000
10010014,24.000000,0.000000,18.750000
10010015,32.000000,0.000000,18.750000
10010016,40.000000,0.000000,18.750000
10010017,48.000000,0.000000,18.750000
10010018,56.000000,0.000000,18.750000
10010019,64.000000,0.000000,18.750000
10010020,72.000000,0.000000,18.750000
10010021,80.000000,0.000000,18.750000
10011001,-80.000000,8.000000,18.750000
10011002,-72.000000,8.000000,18.750000
10011003,-64.000000,8.000000,18.750000
10011004,-56.000000,8.000000,18.750000
10011005,-48.000000,8.000000,18.750000
10011006,-40.000000,8.000000,18.750000
10011007,-32.000000,8.000000,18.750000
10011008,-24.000000,8.000000,18.750000
10011009,-16.000000,8.000000,18.750000
10011010,-8.000000,8.000000,18.750000
10011011,0.000000,8.000000,18.750000
10011012,8.000000,8.000000,18.750000
10011013,16.000000,8.000000,18.750000
10011014,24.000000,8.000000,18.750000
10011015,32.000000,8.000000,18.750000
10011016,40.000000,8.000000,18.750000
10011017,48.000000,8.000000,18.750000
10011018,56.000000,8.000000,18.750000
10011019,64.000000,8.000000,18.750000
10011020,72.000000,8.000000,18.750000
10011021,80.000000,8.000000,18.750000
10012001,-80.000000,16.000000,18.750000
10012002,-72.000000,16.000000,18.750000
10012003,-64.000000,16.000000,18.750000
10012004,-56.000000,16.000000,18.750000
10012005,-48.000000,16.000000,18.750000
10012006,-40.000000,16.000000,18.750000
10012007,-32.000000,16.000000,18.750000
10012008,-24.000000,16.000000,18.750000
10012009,-16.000000,16.000000,18.750000
10012010,-8.000000,16.000000,18.750000
10012011,0.000000,16.000000,18.750000
10012012,8.000000,16.000000,18.750000
10012013,16.000000,16.000000,18.750000
10012014,24.000000,16.000000,18.750000
10012015,32.000000,16.000000,18.750000
10012016,40.000000,16.000000,18.750000
10012017,48.000000,16.000000,18.750000
10012018,56.000000,16.000000,18.750000
10012019,64.000000,16.000000,18.750000
10012020,72.000000,16.000000,18.750000
10012021,80.000000,16.000000,18.750000
10013001,-80.000000,24.000000,18.750000
10013002,-72.000000,24.000000,18.750000
10013003,-64.000000,24.000000,18.750000
10013004,-56.000000,24.000000,18.750000
10013005,-48.000000,24.000000,18.750000
10013006,-40.000000,24.000000,18.750000
10013007,-32.000000,24.000000,18.750000
10013008,-24.000000,24.000000,18.750000
10013009,-16.000000,24.000000,18.750000
10013010,-8.000000,24.000000,18.750000
10013011,0.000000,24.000000,18.750000
10013012,8.000000,24.000000,18.750000
10013013,16.000000,24.000000,18.750000
10013014,24.000000,24.000000,18.750000
10013015,32.000000,24.000000,18.750000
10013016,40.000000,24.000000,18.750000
10013017,48.000000,24.000000,18.750000
10013018,56.000000,24.000000,18.750000
10013019,64.000000,24.000000,18.750000
10013020,72.000000,24.000000,18.750000
10013021,80.000000,24.000000,18.750000
10014001,-80.000000,32.000000,18.750000
10014002,-72.000000,32.000000,18.750000
10014003,-64.000000,32.000000,18.750000
10014004,-56.000000,32.000000,18.750000
10014005,-48.000000,32.000000,18.750000
10014006,-40.000000,32.000000,18.750000
10014007,-32.000000,32.000000,18.750000
10014008,-24.000000,32.000000,18.750000
10014009,-16.000000,32.000000,18.750000
10014010,-8.000000,32.000000,18.750000
10014011,0.000000,32.000000,18.750000
10014012,8.000000,32.000000,18.750000
10014013,16.000000,32.000000,18.750000
10014014,24.000000,32.000000,18.750000
10014015,32.000000,32.000000,18.750000
10014016,40.000000,32.000000,18.750000
10014017,48.000000,32.000000,18.750000
10014018,56.000000,32.000000,18.750000
10014019,64.000000,32.000000,18.750000
10014020,72.000000,32.000000,18.750000
10014021,80.000000,32.000000,18.750000
10015001,-80.000000,40.000000,18.750000
10015002,-72.000000,40.000000,18.750000
10015003,-64.000000,40.000000,18.750000
10015004,-56.000000,40.000000,18.750000
10015005,-48.000000,40.000000,18.750000
10015006,-40.000000,40.000000,18.750000
10015007,-32.000000,40.000000,18.750000
10015008,-24.000000,40.000000,18.750000
10015009,-16.000000,40.000000,18.750000
10015010,-8.000000,40.000000,18.750000
10015011,0.000000,40.000000,18.750000
10015012,8.000000,40.000000,18.750000
10015013,16.000000,40.000000,18.750000
10015014,24.000000,40.000000,18.750000
10015015,32.000000,40.000000,18.750000
10015016,40.000000,40.000000,18.750000
10015017,48.000000,40.000000,18.750000
10015018,56.000000,40.000000,18.750000
10015019,64.000000,40.000000,18.750000
10015020,72.000000,40.000000,18.750000
10015021,80.000000,40.000000,18.750000
10016001,-80.000000,48.000000,18.750000
10016002,-72.000000,48.000000,18.750000
10016003,-64.000000,48.000000,18.750000
10016004,-56.000000,48.000000,18.750000
10016005,-48.000000,48.000000,18.750000
10016006,-40.000000,48.000000,18.750000
10016007,-32.000000,48.000000,18.750000
10016008,-24.000000,48.000000,18.750000
10016009,-16.000000,48.000000,18.750000
10016010,-8.000000,48.000000,18.750000
10016011,0.000000,48.000000,18.750000
10016012,8.000000,48.000000,18.750000
10016013,16.000000,48.000000,18.750000
10016014,24.000000,48.000000,18.750000
10016015,32.000000,48.000000,18.750000
10016016,40.000000,48.000000,18.750000
10016017,48.000000,48.000000,18.750000
10016018,56.000000,48.000000,18.750000
10016019,64.000000,48.000000,18.750000
10016020,72.000000,48.000000,18.750000
10016021,80.000000,48.000000,18.750000
10017001,-80.000000,56.000000,18.750000
10017002,-72.000000,56.000000,18.750000
10017003,-64.000000,56.000000,18.750000
10017004,-56.000000,56.000000,18.750000
10017005,-48.000000,56.000000,18.750000
10017006,-40.000000,56.000000,18.750000
10017007,-32.000000,56.000000,18.750000
10017008,-24.000000,56.000000,18.750000
10017009,-16.000000,56.000000,18.750000
10017010,-8.000000,56.000000,18.750000
10017011,0.000000,56.000000,18.750000
10017012,8.000000,56.000000,18.750000
10017013,16.000000,56.000000,18.750000
10017014,24.000000,56.000000,18.750000
10017015,32.000000,56.000000,18.750000
10017016,40.000000,56.000000,18.750000
10017017,48.000000,56.000000,18.750000
10017018,56.000000,56.000000,18.750000
10017019,64.000000,56.000000,18.750000
10017020,72.000000,56.000000,18.750000
10017021,80.000000,56.000000,18.750000
10018001,-80.000000,64.000000,18.750000
10018002,-72.000000,64.000000,18.750000
10018003,-64.000000,64.000000,18.750000
10018004,-56.000000,64.000000,18.750000
10018005,-48.000000,64.000000,18.750000
10018006,-40.000000,64.000000,18.750000
10018007,-32.000000,64.000000,18.750000
10018008,-24.000000,64.000000,18.750000
10018009,-16.000000,64.000000,18.750000
10018010,-8.000000,64.000000,18.750000
10018011,0.000000,64.000000,18.750000
10018012,8.000000,64.000000,18.750000
10018013,16.000000,64.000000,18.750000
10018014,24.000000,64.000000,18.750000
10018015,32.000000,64.000000,18.750000
10018016,40.000000,64.000000,18.750000
10018017,48.000000,64.000000,18.750000
10018018,56.000000,64.000000,18.750000
10018019,64.000000,64.000000,18.750000
10018020,72.000000,64.000000,18.750000
10018021,80.000000,64.000000,18.750000
10019001,-80.000000,72.000000,18.750000
10019002,-72.000000,72.000000,18.750000
10019003,-64.000000,72.000000,18.750000
10019004,-56.000000,72.000000,18.750000
10019005,-48.000000,72.000000,18.750000
10019006,-40.000000,72.000000,18.750000
10019007,-32.000000,72.000000,18.750000
10019008,-24.000000,72.000000,18.750000
10019009,-16.000000,72.000000,18.750000
10019010,-8.000000,72.000000,18.750000
10019011,0.000000,72.000000,18.750000
10019012,8.000000,72.000000,18.750000
10019013,16.000000,72.000000,18.750000
10019014,24.000000,72.000000,18.750000
10019015,32.000000,72.000000,18.750000
10019016,40.000000,72.000000,18.750000
10019017,48.000000,72.000000,18.750000
10019018,56.000000,72.000000,18.750000
10019019,64.000000,72.000000,18.750000
10019020,72.000000,72.000000,18.750000
10019021,80.000000,72.000000,18.750000
10020001,-80.000000,80.000000,18.750000
10020002,-72.000000,80.000000,18.750000
10020003,-64.000000,80.000000,18.750000
10020004,-56.000000,80.000000,18.750000
10020005,-48.000000,80.000000,18.750000
10020006,-40.000000,80.000000,18.750000
10020007,-32.000000,80.000000,18.750000
10020008,-24.000000,80.000000,18.750000
10020009,-16.000000,80.000000,18.750000
10020010,-8.000000,80.000000,18.750000
10020011,0.000000,80.000000,18.750000
10020012,8.000000,80.000000,18.750000
10020013,16.000000,80.000000,18.750000
10020014,24.000000,80.000000,18.750000
10020015,32.000000,80.000000,18.750000
10020016,40.000000,80.000000,18.750000
10020017,48.000000,80.000000,18.750000
10020018,56.000000,80.000000,18.750000
10020019,64.000000,80.000000,18.750000
10020020,72.000000,80.000000,18.750000
10020021,80.000000,80.000000,18.750000
11000001,-80.000000,-80.000000,20.750000
11000002,-72.000000,-80.000000,20.750000
11000003,-64.000000,-80.000000,20.750000
11000004,-56.000000,-80.000000,20.750000
11000005,-48.000000,-80.000000,20.750000
11000006,-40.000000,-80.000000,20.750000
11000007,-32.000000,-80.000000,20.750000
11000008,-24.000000,-80.000000,20.750000
11000009,-16.000000,-80.000000,20.750000
11000010,-8.000000,-80.000000,20.750000
11000011,0.000000,-80.000000,20.750000
11000012,8.000000,-80.000000,20.750000
11000013,16.000000,-80.000000,20.750000
11000014,24.000000,-80.000000,20.750000
11000015,32.000000,-80.000000,20.750000
11000016,40.000000,-80.000000,20.750000
11000017,48.000000,-80.000000,20.750000
11000018,56.000000,-80.000000,20.750000
11000019,64.000000,-80.000000,20.750000
11000020,72.000000,-80.000000,20.750000
11000021,80.000000,-80.000000,20.750000
11001001,-80.000000,-72.000000,20.750000
11001002,-72.000000,-72.000000,20.750000
11001003,-64.000000,-72.000000,20.750000
11001004,-56.000000,-72.000000,20.750000
11001005,-48.000000,-72.000000,20.750000
11001006,-40.000000,-72.000000,20.750000
11001007,-32.000000,-72.000000,20.750000
11001008,-24.000000,-72.000000,20.750000
11001009,-16.000000,-72.000000,20.750000
11001010,-8.000000,-72.000000,20.750000
11001011,0.000000,-72.000000,20.750000
11001012,8.000000,-72.000000,20.750000
11001013,16.000000,-72.000000,20.750000
11001014,24.000000,-72.000000,20.750000
11001015,32.000000,-72.000000,20.750000
11001016,40.000000,-72.000000,20.750000
11001017,48.000000,-72.000000,20.750000
11001018,56.000000,-72.000000,20.750000
11001019,64.000000,-72.000000,20.750000
11001020,72.000000,-72.000000,20.750000
11001021,80.000000,-72.000000,20.750000
11002001,-80.000000,-64.000000,20.750000
11002002,-72.000000,-64.000000,20.750000
11002003,-64.000000,-64.000000,20.750000
11002004,-56.000000,-64.000000,20.750000
11002005,-48.000000,-64.000000,20.750000
11002006,-40.000000,-64.000000,20.750000
11002007,-32.000000,-64.000000,20.750000
11002008,-24.000000,-64.000000,20.750000
11002009,-16.000000,-64.000000,20.750000
11002010,-8.000000,-64.000000,20.750000
11002011,0.000000,-64.000000,20.750000
11002012,8.000000,-64.000000,20.750000
11002013,16.000000,-64.000000,20.750000
11002014,24.000000,-64.000000,20.750000
11002015,32.000000,-64.000000,20.750000
11002016,40.000000,-64.000000,20.750000
11002017,48.000000,-64.000000,20.750000
11002018,56.000000,-64.000000,20.750000
11002019,64.000000,-64.000000,20.750000
11002020,72.000000,-64.000000,20.750000
11002021,80.000000,-64.000000,20.750000
11003001,-80.000000,-56.000000,20.750000
11003002,-72.000000,-56.000000,20.750000
11003003,-64.000000,-56.000000,20.750000
11003004,-56.000000,-56.000000,20.750000
11003005,-48.000000,-56.000000,20.750000
11003006,-40.000000,-56.000000,20.750000
11003007,-32.000000,-56.000000,20.750000
11003008,-24.000000,-56.000000,20.750000
11003009,-16.000000,-56.000000,20.750000
11003010,-8.000000,-56.000000,20.750000
11003011,0.000000,-56.000000,20.750000
11003012,8.000000,-56.000000,20.750000
11003013,16.000000,-56.000000,20.750000
11003014,24.000000,-56.000000,20.750000
11003015,32.000000,-56.000000,20.750000
11003016,40.000000,-56.000000,20.750000
11003017,48.000000,-56.000000,20.750000
11003018,56.000000,-56.000000,20.750000
11003019,64.000000,-56.000000,20.750000
11003020,72.000000,-56.000000,20.750000
11003021,80.000000,-56.000000,20.750000
11004001,-80.000000,-48.000000,20.750000
11004002,-72.000000,-48.000000,20.750000
11004003,-64.000000,-48.000000,20.750000
11004004,-56.000000,-48.000000,20.750000
11004005,-48.000000,-48.000000,20.750000
11004006,-40.000000,-48.000000,20.750000
11004007,-32.000000,-48.000000,20.750000
11004008,-24.000000,-48.000000,20.750000
11004009,-16.000000,-48.000000,20.750000
11004010,-8.000000,-48.000000,20.750000
11004011,0.000000,-48.000000,20.750000
11004012,8.000000,-48.000000,20.750000
11004013,16.000000,-48.000000,20.750000
11004014,24.000000,-48.000000,20.750000
11004015,32.000000,-48.000000,20.750000
11004016,40.000000,-48.000000,20.750000
11004017,48.000000,-48.000000,20.750000
11004018,56.000000,-48.000000,20.750000
11004019,64.000000,-48.000000,20.750000
11004020,72.000000,-48.000000,20.750000
11004021,80.000000,-48.000000,20.750000
11005001,-80.000000,-40.000000,20.750000
11005002,-72.000000,-40.000000,20.750000
11005003,-64.000000,-40.000000,20.750000
11005004,-56.000000,-40.000000,20.750000
11005005,-48.000000,-40.000000,20.750000
11005006,-40.000000,-40.000000,20.750000
11005007,-32.000000,-40.000000,20.750000
11005008,-24.000000,-40.000000,20.750000
11005009,-16.000000,-40.000000,20.750000
11005010,-8.000000,-40.000000,20.750000
11005011,0.000000,-40.000000,20.750000
11005012,8.000000,-40.000000,20.750000
11005013,16.000000,-40.000000,20.750000
11005014,24.000000,-40.000000,20.750000
11005015,32.000000,-40.000000,20.750000
11005016,40.000000,-40.000000,20.750000
11005017,48.000000,-40.000000,20.750000
11005018,56.000000,-40.000000,20.750000
11005019,64.000000,-40.000000,20.750000
11005020,72.000000,-40.000000,20.750000
11005021,80.000000,-40.000000,20.750000
11006001,-80.000000,-32.000000,20.750000
11006002,-72.000000,-32.000000,20.750000
11006003,-64.000000,-32.000000,20.750000
11006004,-56.000000,-32.000000,20.750000
11006005,-48.000000,-32.000000,20.750000
11006006,-40.000000,-32.000000,20.750000
11006007,-32.000000,-32.000000,20.750000
11006008,-24.000000,-32.000000,20.750000
11006009,-16.000000,-32.000000,20.750000
11006010,-8.000000,-32.000000,20.750000
11006011,0.000000,-32.000000,20.750000
11006012,8.000000,-32.000000,20.750000
11006013,16.000000,-32.000000,20.750000
11006014,24.000000,-32.000000,20.750000
11006015,32.000000,-32.000000,20.750000
11006016,40.000000,-32.000000,20.750000
11006017,48.000000,-32.000000,20.750000
11006018,56.000000,-32.000000,20.750000
11006019,64.000000,-32.000000,20.750000
11006020,72.000000,-32.000000,20.750000
11006021,80.000000,-32.000000,20.750000
11007001,-80.000000,-24.000000,20.750000
11007002,-72.000000,-24.000000,20.750000
11007003,-64.000000,-24.000000,20.750000
11007004,-56.000000,-24.000000,20.750000
11007005,-48.000000,-24.000000,20.750000
11007006,-40.000000,-24.000000,20.750000
11007007,-32.000000,-24.000000,20.750000
11007008,-24.000000,-24.000000,20.750000
11007009,-16.000000,-24.000000,20.750000
11007010,-8.000000,-24.000000,20.750000
11007011,0.000000,-24.000000,20.750000
11007012,8.000000,-24.000000,20.750000
11007013,16.000000,-24.000000,20.750000
11007014,24.000000,-24.000000,20.750000
11007015,32.000000,-24.000000,20.750000
11007016,40.000000,-24.000000,20.750000
11007017,48.000000,-24.000000,20.750000
11007018,56.000000,-24.000000,20.750000
11007019,64.000000,-24.000000,20.750000
11007020,72.000000,-24.000000,20.750000
11007021,80.000000,-24.000000,20.750000
11008001,-80.000000,-16.000000,20.750000
11008002,-72.000000,-16.000000,20.750000
11008003,-64.000000,-16.000000,20.750000
11008004,-56.000000,-16.000000,20.750000
11008005,-48.000000,-16.000000,20.750000
11008006,-40.000000,-16.000000,20.750000
11008007,-32.000000,-16.000000,20.750000
11008008,-24.000000,-16.000000,20.750000
11008009,-16.000000,-16.000000,20.750000
11008010,-8.000000,-16.000000,20.750000
11008011,0.000000,-16.000000,20.750000
11008012,8.000000,-16.000000,20.750000
11008013,16.000000,-16.000000,20.750000
11008014,24.000000,-16.000000,20.750000
11008015,32.000000,-16.000000,20.750000
11008016,40.000000,-16.000000,20.750000
11008017,48.000000,-16.000000,20.750000
11008018,56.000000,-16.000000,20.750000
11008019,64.000000,-16.000000,20.750000
11008020,72.000000,-16.000000,20.750000
11008021,80.000000,-16.000000,20.750000
11009001,-80.000000,-8.000000,20.750000
11009002,-72.000000,-8.000000,20.750000
11009003,-64.000000,-8.000000,20.750000
11009004,-56.000000,-8.000000,20.750000
11009005,-48.000000,-8.000000,20.750000
11009006,-40.000000,-8.000000,20.750000
11009007,-32.000000,-8.000000,20.750000
11009008,-24.000000,-8.000000,20.750000
11009009,-16.000000,-8.000000,20.750000
11009010,-8.000000,-8.000000,20.750000
11009011,0.000000,-8.000000,20.750000
11009012,8.000000,-8.000000,20.750000
11009013,16.000000,-8.000000,20.750000
11009014,24.000000,-8.000000,20.750000
11009015,32.000000,-8.000000,20.750000
11009016,40.000000,-8.000000,20.750000
11009017,48.000000,-8.000000,20.750000
11009018,56.000000,-8.000000,20.750000
11009019,64.000000,-8.000000,20.750000
11009020,72.000000,-8.000000,20.750000
11009021,80.000000,-8.000000,20.750000
11010001,-80.000000,0.000000,20.750000
11010002,-72.000000,0.000000,20.750000
11010003,-64.000000,0.000000,20.750000
11010004,-56.000000,0.000000,20.750000
11010005,-48.000000,0.000000,20.750000
11010006,-40.000000,0.000000,20.750000
11010007,-32.000000,0.000000,20.750000
11010008,-24.000000,0.000000,20.750000
11010009,-16.000000,0.000000,20.750000
11010010,-8.000000,0.000000,20.750000
11010011,0.000000,0.000000,20.750000
11010012,8.000000,0.000000,20.750000
11010013,16.000000,0.000000,20.750000
11010014,24.000000,0.000000,20.750000
11010015,32.000000,0.000000,20.750000
11010016,40.000000,0.000000,20.750000
11010017,48.000000,0.000000,20.750000
11010018,56.000000,0.000000,20.750000
11010019,64.000000,0.000000,20.750000
11010020,72.000000,0.000000,20.750000
11010021,80.000000,0.000000,20.750000
11011001,-80.000000,8.000000,20.750000
11011002,-72.000000,8.000000,20.750000
11011003,-64.000000,8.000000,20.750000
11011004,-56.000000,8.000000,20.750000
11011005,-48.000000,8.000000,20.750000
11011006,-40.000000,8.000000,20.750000
11011007,-32.000000,8.000000,20.750000
11011008,-24.000000,8.000000,20.750000
11011009,-16.000000,8.000000,20.750000
11011010,-8.000000,8.000000,20.750000
11011011,0.000000,8.000000,20.750000
11011012,8.000000,8.000000,20.750000
11011013,16.000000,8.000000,20.750000
11011014,24.000000,8.000000,20.750000
11011015,32.000000,8.000000,20.750000
11011016,40.000000,8.000000,20.750000
11011017,48.000000,8.000000,20.750000
11011018,56.000000,8.000000,20.750000
11011019,64.000000,8.000000,20.750000
11011020,72.000000,8.000000,20.750000
11011021,80.000000,8.000000,20.750000
11012001,-80.000000,16.000000,20.750000
11012002,-72.000000,16.000000,20.750000
11012003,-64.000000,16.000000,20.750000
11012004,-56.000000,16.000000,20.750000
11012005,-48.000000,16.000000,20.750000
11012006,-40.000000,16.000000,20.750000
11012007,-32.000000,16.000000,20.750000
11012008,-24.000000,16.000000,20.750000
11012009,-16.000000,16.000000,20.750000
11012010,-8.000000,16.000000,20.750000
11012011,0.000000,16.000000,20.750000
11012012,8.000000,16.000000,20.750000
11012013,16.000000,16.000000,20.750000
11012014,24.000000,16.000000,20.750000
11012015,32.000000,16.000000,20.750000
11012016,40.000000,16.000000,20.750000
11012017,48.000000,16.000000,20.750000
11012018,56.000000,16.000000,20.750000
11012019,64.000000,16.000000,20.750000
11012020,72.000000,16.000000,20.750000
11012021,80.000000,16.000000,20.750000
11013001,-80.000000,24.000000,20.750000
11013002,-72.000000,24.000000,20.750000
11013003,-64.000000,24.000000,20.750000
11013004,-56.000000,24.000000,20.750000
11013005,-48.000000,24.000000,20.750000
11013006,-40.000000,24.000000,20.750000
11013007,-32.000000,24.000000,20.750000
11013008,-24.000000,24.000000,20.750000
11013009,-16.000000,24.000000,20.750000
11013010,-8.000000,24.000000,20.750000
11013011,0.000000,24.000000,20.750000
11013012,8.000000,24.000000,20.750000
11013013,16.000000,24.000000,20.750000
11013014,24.000000,24.000000,20.750000
11013015,32.000000,24.000000,20.750000
11013016,40.000000,24.000000,20.750000
11013017,48.000000,24.000000,20.750000
11013018,56.000000,24.000000,20.750000
11013019,64.000000,24.000000,20.750000
11013020,72.000000,24.000000,20.750000
11013021,80.000000,24.000000,20.750000
11014001,-80.000000,32.000000,20.750000
11014002,-72.000000,32.000000,20.750000
11014003,-64.000000,32.000000,20.750000
11014004,-56.000000,32.000000,20.750000
11014005,-48.000000,32.000000,20.750000
11014006,-40.000000,32.000000,20.750000
11014007,-32.000000,32.000000,20.750000
11014008,-24.000000,32.000000,20.750000
11014009,-16.000000,32.000000,20.750000
11014010,-8.000000,32.000000,20.750000
11014011,0.000000,32.000000,20.750000
11014012,8.000000,32.000000,20.750000
11014013,16.000000,32.000000,20.750000
11014014,24.000000,32.000000,20.750000
11014015,32.000000,32.000000,20.750000
11014016,40.000000,32.000000,20.750000
11014017,48.000000,32.000000,20.750000
11014018,56.000000,32.000000,20.750000
11014019,64.000000,32.000000,20.750000
11014020,72.000000,32.000000,20.750000
11014021,80.000000,32.000000,20.750000
11015001,-80.000000,40.000000,20.750000
11015002,-72.000000,40.000000,20.750000
11015003,-64.000000,40.000000,20.750000
11015004,-56.000000,40.000000,20.750000
11015005,-48.000000,40.000000,20.750000
11015006,-40.000000,40.000000,20.750000
11015007,-32.000000,40.000000,20.750000
11015008,-24.000000,40.000000,20.750000
11015009,-16.000000,40.000000,20.750000
11015010,-8.000000,40.000000,20.750000
11015011,0.000000,40.000000,20.750000
11015012,8.000000,40.000000,20.750000
11015013,16.000000,40.000000,20.750000
11015014,24.000000,40.000000,20.750000
11015015,32.000000,40.000000,20.750000
11015016,40.000000,40.000000,20.750000
11015017,48.000000,40.000000,20.750000
11015018,56.000000,40.000000,20.750000
11015019,64.000000,40.000000,20.750000
11015020,72.000000,40.000000,20.750000
11015021,80.000000,40.000000,20.750000
11016001,-80.000000,48.000000,20.750000
11016002,-72.000000,48.000000,20.750000
11016003,-64.000000,48.000000,20.750000
11016004,-56.000000,48.000000,20.750000
11016005,-48.000000,48.000000,20.750000
11016006,-40.000000,48.000000,20.750000
11016007,-32.000000,48.000000,20.750000
11016008,-24.000000,48.000000,20.750000
11016009,-16.000000,48.000000,20.750000
11016010,-8.000000,48.000000,20.750000
11016011,0.000000,48.000000,20.750000
11016012,8.000000,48.000000,20.750000
11016013,16.000000,48.000000,20.750000
11016014,24.000000,48.000000,20.750000
11016015,32.000000,48.000000,20.750000
11016016,40.000000,48.000000,20.750000
11016017,48.000000,48.000000,20.750000
11016018,56.000000,48.000000,20.750000
11016019,64.000000,48.000000,20.750000
11016020,72.000000,48.000000,20.750000
11016021,80.000000,48.000000,20.750000
11017001,-80.000000,56.000000,20.750000
11017002,-72.000000,56.000000,20.750000
11017003,-64.000000,56.000000,20.750000
11017004,-56.000000,56.000000,20.750000
11017005,-48.000000,56.000000,20.750000
11017006,-40.000000,56.000000,20.750000
11017007,-32.000000,56.000000,20.750000
11017008,-24.000000,56.000000,20.750000
11017009,-16.000000,56.000000,20.750000
11017010,-8.000000,56.000000,20.750000
11017011,0.000000,56.000000,20.750000
11017012,8.000000,56.000000,20.750000
11017013,16.000000,56.000000,20.750000
11017014,24.000000,56.000000,20.750000
11017015,32.000000,56.000000,20.750000
11017016,40.000000,56.000000,20.750000
11017017,48.000000,56.000000,20.750000
11017018,56.000000,56.000000,20.750000
11017019,64.000000,56.000000,20.750000
11017020,72.000000,56.000000,20.750000
11017021,80.000000,56.000000,20.750000
11018001,-80.000000,64.000000,20.750000
11018002,-72.000000,64.000000,20.750000
11018003,-64.000000,64.000000,20.750000
11018004,-56.000000,64.000000,20.750000
11018005,-48.000000,64.000000,20.750000
11018006,-40.000000,64.000000,20.750000
11018007,-32.000000,64.000000,20.750000
11018008,-24.000000,64.000000,20.750000
11018009,-16.000000,64.000000,20.750000
11018010,-8.000000,64.000000,20.750000
11018011,0.000000,64.000000,20.750000
11018012,8.000000,64.000000,20.750000
11018013,16.000000,64.000000,20.750000
11018014,24.000000,64.000000,20.750000
11018015,32.000000,64.000000,20.750000
11018016,40.000000,64.000000,20.750000
11018017,48.000000,64.000000,20.750000
11018018,56.000000,64.000000,20.750000
11018019,64.000000,64.000000,20.750000
11018020,72.000000,64.000000,20.750000
11018021,80.000000,64.000000,20.750000
11019001,-80.000000,72.000000,20.750000
11019002,-72.000000,72.000000,20.750000
11019003,-64.000000,72.000000,20.750000
11019004,-56.000000,72.000000,20.750000
11019005,-48.000000,72.000000,20.750000
11019006,-40.000000,72.000000,20.750000
11019007,-32.000000,72.000000,20.750000
11019008,-24.000000,72.000000,20.750000
11019009,-16.000000,72.000000,20.750000
11019010,-8.000000,72.000000,20.750000
11019011,0.000000,72.000000,20.750000
11019012,8.000000,72.000000,20.750000
11019013,16.000000,72.000000,20.750000
11019014,24.000000,72.000000,20.750000
11019015,32.000000,72.000000,20.750000
11019016,40.000000,72.000000,20.750000
11019017,48.000000,72.000000,20.750000
11019018,56.000000,72.000000,20.750000
11019019,64.000000,72.000000,20.750000
11019020,72.000000,72.000000,20.750000
11019021,80.000000,72.000000,20.750000
11020001,-80.000000,80.000000,20.750000
11020002,-72.000000,80.000000,20.750000
11020003,-64.000000,80.000000,20.750000
11020004,-56.000000,80.000000,20.750000
11020005,-48.000000,80.000000,20.750000
11020006,-40.000000,80.000000,20.750000
11020007,-32.000000,80.000000,20.750000
11020008,-24.000000,80.000000,20.750000
11020009,-16.000000,80.000000,20.750000
11020010,-8.000000,80.000000,20.750000
11020011,0.000000,80.000000,20.750000
11020012,8.000000,80.000000,20.750000
11020013,16.000000,80.000000,20.750000
11020014,24.000000,80.000000,20.750000
11020015,32.000000,80.000000,20.750000
11020016,40.000000,80.000000,20.750000
11020017,48.000000,80.000000,20.750000
11020018,56.000000,80.000000,20.750000
11020019,64.000000,80.000000,20.750000
11020020,72.000000,80.000000,20.750000
11020021,80.000000,80.000000,20.750000
12000001,-80.000000,-80.000000,22.750000
12000002,-72.000000,-80.000000,22.750000
12000003,-64.000000,-80.000000,22.750000
12000004,-56.000000,-80.000000,22.750000
12000005,-48.000000,-80.000000,22.750000
12000006,-40.000000,-80.000000,22.750000
12000007,-32.000000,-80.000000,22.750000
12000008,-24.000000,-80.000000,22.750000
12000009,-16.000000,-80.000000,22.750000
12000010,-8.000000,-80.000000,22.750000
12000011,0.000000,-80.000000,22.750000
12000012,8.000000,-80.000000,22.750000
12000013,16.000000,-80.000000,22.750000
12000014,24.000000,-80.000000,22.750000
12000015,32.000000,-80.000000,22.750000
12000016,40.000000,-80.000000,22.750000
12000017,48.000000,-80.000000,22.750000
12000018,56.000000,-80.000000,22.750000
12000019,64.000000,-80.000000,22.750000
12000020,72.000000,-80.000000,22.750000
12000021,80.000000,-80.000000,22.750000
12001001,-80.000000,-72.000000,22.750000
12001002,-72.000000,-72.000000,22.750000
12001003,-64.000000,-72.000000,22.750000
12001004,-56.000000,-72.000000,22.750000
12001005,-48.000000,-72.000000,22.750000
12001006,-40.000000,-72.000000,22.750000
12001007,-32.000000,-72.000000,22.750000
12001008,-24.000000,-72.000000,22.750000
12001009,-16.000000,-72.000000,22.750000
12001010,-8.000000,-72.000000,22.750000
12001011,0.000000,-72.000000,22.750000
12001012,8.000000,-72.000000,22.750000
12001013,16.000000,-72.000000,22.750000
12001014,24.000000,-72.000000,22.750000
12001015,32.000000,-72.000000,22.750000
12001016,40.000000,-72.000000,22.750000
12001017,48.000000,-72.000000,22.750000
12001018,56.000000,-72.000000,22.750000
12001019,64.000000,-72.000000,22.750000
12001020,72.000000,-72.000000,22.750000
12001021,80.000000,-72.000000,22.750000
12002001,-80.000000,-64.000000,22.750000
12002002,-72.000000,-64.000000,22.750000
12002003,-64.000000,-64.000000,22.750000
12002004,-56.000000,-64.000000,22.750000
12002005,-48.000000,-64.000000,22.750000
12002006,-40.000000,-64.000000,22.750000
12002007,-32.000000,-64.000000,22.750000
12002008,-24.000000,-64.000000,22.750000
12002009,-16.000000,-64.000000,22.750000
12002010,-8.000000,-64.000000,22.750000
12002011,0.000000,-64.000000,22.750000
12002012,8.000000,-64.000000,22.750000
12002013,16.000000,-64.000000,22.750000
12002014,24.000000,-64.000000,22.750000
12002015,32.000000,-64.000000,22.750000
12002016,40.000000,-64.000000,22.750000
12002017,48.000000,-64.000000,22.750000
12002018,56.000000,-64.000000,22.750000
12002019,64.000000,-64.000000,22.750000
12002020,72.000000,-64.000000,22.750000
12002021,80.000000,-64.000000,22.750000
12003001,-80.000000,-56.000000,22.750000
12003002,-72.000000,-56.000000,22.750000
12003003,-64.000000,-56.000000,22.750000
12003004,-56.000000,-56.000000,22.750000
12003005,-48.000000,-56.000000,22.750000
12003006,-40.000000,-56.000000,22.750000
12003007,-32.000000,-56.000000,22.750000
12003008,-24.000000,-56.000000,22.750000
12003009,-16.000000,-56.000000,22.750000
12003010,-8.000000,-56.000000,22.750000
12003011,0.000000,-56.000000,22.750000
12003012,8.000000,-56.000000,22.750000
12003013,16.000000,-56.000000,22.750000
12003014,24.000000,-56.000000,22.750000
12003015,32.000000,-56.000000,22.750000
12003016,40.000000,-56.000000,22.750000
12003017,48.000000,-56.000000,22.750000
12003018,56.000000,-56.000000,22.750000
12003019,64.000000,-56.000000,22.750000
12003020,72.000000,-56.000000,22.750000
12003021,80.000000,-56.000000,22.750000
12004001,-80.000000,-48.000000,22.750000
12004002,-72.000000,-48.000000,22.750000
12004003,-64.000000,-48.000000,22.750000
12004004,-56.000000,-48.000000,22.750000
12004005,-48.000000,-48.000000,22.750000
12004006,-40.000000,-48.000000,22.750000
12004007,-32.000000,-48.000000,22.750000
12004008,-24.000000,-48.000000,22.750000
12004009,-16.000000,-48.000000,22.750000
12004010,-8.000000,-48.000000,22.750000
12004011,0.000000,-48.000000,22.750000
12004012,8.000000,-48.000000,22.750000
12004013,16.000000,-48.000000,22.750000
12004014,24.000000,-48.000000,22.750000
12004015,32.000000,-48.000000,22.750000
12004016,40.000000,-48.000000,22.750000
12004017,48.000000,-48.000000,22.750000
12004018,56.000000,-48.000000,22.750000
12004019,64.000000,-48.000000,22.750000
12004020,72.000000,-48.000000,22.750000
12004021,80.000000,-48.000000,22.750000
12005001,-80.000000,-40.000000,22.750000
12005002,-72.000000,-40.000000,22.750000
12005003,-64.000000,-40.000000,22.750000
12005004,-56.000000,-40.000000,22.750000
12005005,-48.000000,-40.000000,22.750000
12005006,-40.000000,-40.000000,22.750000
12005007,-32.000000,-40.000000,22.750000
12005008,-24.000000,-40.000000,22.750000
12005009,-16.000000,-40.000000,22.750000
12005010,-8.000000,-40.000000,22.750000
12005011,0.000000,-40.000000,22.750000
12005012,8.000000,-40.000000,22.750000
12005013,16.000000,-40.000000,22.750000
12005014,24.000000,-40.000000,22.750000
12005015,32.000000,-40.000000,22.750000
12005016,40.000000,-40.000000,22.750000
12005017,48.000000,-40.000000,22.750000
12005018,56.000000,-40.000000,22.750000
12005019,64.000000,-40.000000,22.750000
12005020,72.000000,-40.000000,22.750000
12005021,80.000000,-40.000000,22.750000
12006001,-80.000000,-32.000000,22.750000
12006002,-72.000000,-32.000000,22.750000
12006003,-64.000000,-32.000000,22.750000
12006004,-56.000000,-32.000000,22.750000
12006005,-48.000000,-32.000000,22.750000
12006006,-40.000000,-32.000000,22.750000
12006007,-32.000000,-32.000000,22.750000
12006008,-24.000000,-32.000000,22.750000
12006009,-16.000000,-32.000000,22.750000
12006010,-8.000000,-32.000000,22.750000
12006011,0.000000,-32.000000,22.750000
12006012,8.000000,-32.000000,22.750000
12006013,16.000000,-32.000000,22.750000
12006014,24.000000,-32.000000,22.750000
12006015,32.000000,-32.000000,22.750000
12006016,40.000000,-32.000000,22.750000
12006017,48.000000,-32.000000,22.750000
12006018,56.000000,-32.000000,22.750000
12006019,64.000000,-32.000000,22.750000
12006020,72.000000,-32.000000,22.750000
12006021,80.000000,-32.000000,22.750000
12007001,-80.000000,-24.000000,22.750000
12007002,-72.000000,-24.000000,22.750000
12007003,-64.000000,-24.000000,22.750000
12007004,-56.000000,-24.000000,22.750000
12007005,-48.000000,-24.000000,22.750000
12007006,-40.000000,-24.000000,22.750000
12007007,-32.000000,-24.000000,22.750000
12007008,-24.000000,-24.000000,22.750000
12007009,-16.000000,-24.000000,22.750000
12007010,-8.000000,-24.000000,22.750000
12007011,0.000000,-24.000000,22.750000
12007012,8.000000,-24.000000,22.750000
12007013,16.000000,-24.000000,22.750000
12007014,24.000000,-24.000000,22.750000
12007015,32.000000,-24.000000,22.750000
12007016,40.000000,-24.000000,22.750000
12007017,48.000000,-24.000000,22.750000
12007018,56.000000,-24.000000,22.750000
12007019,64.000000,-24.000000,22.750000
12007020,72.000000,-24.000000,22.750000
12007021,80.000000,-24.000000,22.750000
12008001,-80.000000,-16.000000,22.750000
12008002,-72.000000,-16.000000,22.750000
12008003,-64.000000,-16.000000,22.750000
12008004,-56.000000,-16.000000,22.750000
12008005,-48.000000,-16.000000,22.750000
12008006,-40.000000,-16.000000,22.750000
12008007,-32.000000,-16.000000,22.750000
12008008,-24.000000,-16.000000,22.750000
12008009,-16.000000,-16.000000,22.750000
12008010,-8.000000,-16.000000,22.750000
12008011,0.000000,-16.000000,22.750000
12008012,8.000000,-16.000000,22.750000
12008013,16.000000,-16.000000,22.750000
12008014,24.000000,-16.000000,22.750000
12008015,32.000000,-16.000000,22.750000
12008016,40.000000,-16.000000,22.750000
12008017,48.000000,-16.000000,22.750000
12008018,56.000000,-16.000000,22.750000
12008019,64.000000,-16.000000,22.750000
12008020,72.000000,-16.000000,22.750000
12008021,80.000000,-16.000000,22.750000
12009001,-80.000000,-8.000000,22.750000
12009002,-72.000000,-8.000000,22.750000
12009003,-64.000000,-8.000000,22.750000
12009004,-56.000000,-8.000000,22.750000
12009005,-48.000000,-8.000000,22.750000
12009006,-40.000000,-8.000000,22.750000
12009007,-32.000000,-8.000000,22.750000
12009008,-24.000000,-8.000000,22.750000
12009009,-16.000000,-8.000000,22.750000
12009010,-8.000000,-8.000000,22.750000
12009011,0.000000,-8.000000,22.750000
12009012,8.000000,-8.000000,22.750000
12009013,16.000000,-8.000000,22.750000
12009014,24.000000,-8.000000,22.750000
12009015,32.000000,-8.000000,22.750000
12009016,40.000000,-8.000000,22.750000
12009017,48.000000,-8.000000,22.750000
12009018,56.000000,-8.000000,22.750000
12009019,64.000000,-8.000000,22.750000
12009020,72.000000,-8.000000,22.750000
12009021,80.000000,-8.000000,22.750000
12010001,-80.000000,0.000000,22.750000
12010002,-72.000000,0.000000,22.750000
12010003,-64.000000,0.000000,22.750000
12010004,-56.000000,0.000000,22.750000
12010005,-48.000000,0.000000,22.750000
12010006,-40.000000,0.000000,22.750000
12010007,-32.000000,0.000000,22.750000
12010008,-24.000000,0.000000,22.750000
12010009,-16.000000,0.000000,22.750000
12010010,-8.000000,0.000000,22.750000
12010011,0.000000,0.000000,22.750000
12010012,8.000000,0.000000,22.750000
12010013,16.000000,0.000000,22.750000
12010014,24.000000,0.000000,22.750000
12010015,32.000000,0.000000,22.750000
12010016,40.000000,0.000000,22.750000
12010017,48.000000,0.000000,22.750000
12010018,56.000000,0.000000,22.750000
12010019,64.000000,0.000000,22.750000
12010020,72.000000,0.000000,22.750000
12010021,80.000000,0.000000,22.750000
12011001,-80.000000,8.000000,22.750000
12011002,-72.000000,8.000000,22.750000
12011003,-64.000000,8.000000,22.750000
12011004,-56.000000,8.000000,22.750000
12011005,-48.000000,8.000000,22.750000
12011006,-40.000000,8.000000,22.750000
12011007,-32.000000,8.000000,22.750000
12011008,-24.000000,8.000000,22.750000
12011009,-16.000000,8.000000,22.750000
12011010,-8.000000,8.000000,22.750000
12011011,0.000000,8.000000,22.750000
12011012,8.000000,8.000000,22.750000
12011013,16.000000,8.000000,22.750000
12011014,24.000000,8.000000,22.750000
12011015,32.000000,8.000000,22.750000
12011016,40.000000,8.000000,22.750000
12011017,48.000000,8.000000,22.750000
12011018,56.000000,8.000000,22.750000
12011019,64.000000,8.000000,22.750000
12011020,72.000000,8.000000,22.750000
12011021,80.000000,8.000000,22.750000
12012001,-80.000000,16.000000,22.750000
12012002,-72.000000,16.000000,22.750000
12012003,-64.000000,16.000000,22.750000
12012004,-56.000000,16.000000,22.750000
12012005,-48.000000,16.000000,22.750000
12012006,-40.000000,16.000000,22.750000
12012007,-32.000000,16.000000,22.750000
12012008,-24.000000,16.000000,22.750000
12012009,-16.000000,16.000000,22.750000
12012010,-8.000000,16.000000,22.750000
12012011,0.000000,16.000000,22.750000
12012012,8.000000,16.000000,22.750000
12012013,16.000000,16.000000,22.750000
12012014,24.000000,16.000000,22.750000
12012015,32.000000,16.000000,22.750000
12012016,40.000000,16.000000,22.750000
12012017,48.000000,16.000000,22.750000
12012018,56.000000,16.000000,22.750000
12012019,64.000000,16.000000,22.750000
12012020,72.000000,16.000000,22.750000
12012021,80.000000,16.000000,22.750000
12013001,-80.000000,24.000000,22.750000
12013002,-72.000000,24.000000,22.750000
12013003,-64.000000,24.000000,22.750000
12013004,-56.000000,24.000000,22.750000
12013005,-48.000000,24.000000,22.750000
12013006,-40.000000,24.000000,22.750000
12013007,-32.000000,24.000000,22.750000
12013008,-24.000000,24.000000,22.750000
12013009,-16.000000,24.000000,22.750000
12013010,-8.000000,24.000000,22.750000
12013011,0.000000,24.000000,22.750000
12013012,8.000000,24.000000,22.750000
12013013,16.000000,24.000000,22.750000
12013014,24.000000,24.000000,22.750000
12013015,32.000000,24.000000,22.750000
12013016,40.000000,24.000000,22.750000
12013017,48.000000,24.000000,22.750000
12013018,56.000000,24.000000,22.750000
12013019,64.000000,24.000000,22.750000
12013020,72.000000,24.000000,22.750000
12013021,80.000000,24.000000,22.750000
12014001,-80.000000,32.000000,22.750000
12014002,-72.000000,32.000000,22.750000
12014003,-64.000000,32.000000,22.750000
12014004,-56.000000,32.000000,22.750000
12014005,-48.000000,32.000000,22.750000
12014006,-40.000000,32.000000,22.750000
12014007,-32.000000,32.000000,22.750000
12014008,-24.000000,32.000000,22.750000
12014009,-16.000000,32.000000,22.750000
12014010,-8.000000,32.000000,22.750000
12014011,0.000000,32.000000,22.750000
12014012,8.000000,32.000000,22.750000
12014013,16.000000,32.000000,22.750000
12014014,24.000000,32.000000,22.750000
12014015,32.000000,32.000000,22.750000
12014016,40.000000,32.000000,22.750000
12014017,48.000000,32.000000,22.750000
12014018,56.000000,32.000000,22.750000
12014019,64.000000,32.000000,22.750000
12014020,72.000000,32.000000,22.750000
12014021,80.000000,32.000000,22.750000
12015001,-80.000000,40.000000,22.750000
12015002,-72.000000,40.000000,22.750000
12015003,-64.000000,40.000000,22.750000
12015004,-56.000000,40.000000,22.750000
12015005,-48.000000,40.000000,22.750000
12015006,-40.000000,40.000000,22.750000
12015007,-32.000000,40.000000,22.750000
12015008,-24.000000,40.000000,22.750000
12015009,-16.000000,40.000000,22.750000
12015010,-8.000000,40.000000,22.750000
12015011,0.000000,40.000000,22.750000
12015012,8.000000,40.000000,22.750000
12015013,16.000000,40.000000,22.750000
12015014,24.000000,40.000000,22.750000
12015015,32.000000,40.000000,22.750000
12015016,40.000000,40.000000,22.750000
12015017,48.000000,40.000000,22.750000
12015018,56.000000,40.000000,22.750000
12015019,64.000000,40.000000,22.750000
12015020,72.000000,40.000000,22.750000
12015021,80.000000,40.000000,22.750000
12016001,-80.000000,48.000000,22.750000
12016002,-72.000000,48.000000,22.750000
12016003,-64.000000,48.000000,22.750000
12016004,-56.000000,48.000000,22.750000
12016005,-48.000000,48.000000,22.750000
12016006,-40.000000,48.000000,22.750000
12016007,-32.000000,48.000000,22.750000
12016008,-24.000000,48.000000,22.750000
12016009,-16.000000,48.000000,22.750000
12016010,-8.000000,48.000000,22.750000
12016011,0.000000,48.000000,22.750000
12016012,8.000000,48.000000,22.750000
12016013,16.000000,48.000000,22.750000
12016014,24.000000,48.000000,22.750000
12016015,32.000000,48.000000,22.750000
12016016,40.000000,48.000000,22.750000
12016017,48.000000,48.000000,22.750000
12016018,56.000000,48.000000,22.750000
12016019,64.000000,48.000000,22.750000
12016020,72.000000,48.000000,22.750000
12016021,80.000000,48.000000,22.750000
12017001,-80.000000,56.000000,22.750000
12017002,-72.000000,56.000000,22.750000
12017003,-64.000000,56.000000,22.750000
12017004,-56.000000,56.000000,22.750000
12017005,-48.000000,56.000000,22.750000
12017006,-40.000000,56.000000,22.750000
12017007,-32.000000,56.000000,22.750000
12017008,-24.000000,56.000000,22.750000
12017009,-16.000000,56.000000,22.750000
12017010,-8.000000,56.000000,22.750000
12017011,0.000000,56.000000,22.750000
12017012,8.000000,56.000000,22.750000
12017013,16.000000,56.000000,22.750000
12017014,24.000000,56.000000,22.750000
12017015,32.000000,56.000000,22.750000
12017016,40.000000,56.000000,22.750000
12017017,48.000000,56.000000,22.750000
12017018,56.000000,56.000000,22.750000
12017019,64.000000,56.000000,22.750000
12017020,72.000000,56.000000,22.750000
12017021,80.000000,56.000000,22.750000
12018001,-80.000000,64.000000,22.750000
12018002,-72.000000,64.000000,22.750000
12018003,-64.000000,64.000000,22.750000
12018004,-56.000000,64.000000,22.750000
12018005,-48.000000,64.000000,22.750000
12018006,-40.000000,64.000000,22.750000
12018007,-32.000000,64.000000,22.750000
12018008,-24.000000,64.000000,22.750000
12018009,-16.000000,64.000000,22.750000
12018010,-8.000000,64.000000,22.750000
12018011,0.000000,64.000000,22.750000
12018012,8.000000,64.000000,22.750000
12018013,16.000000,64.000000,22.750000
12018014,24.000000,64.000000,22.750000
12018015,32.000000,64.000000,22.750000
12018016,40.000000,64.000000,22.750000
12018017,48.000000,64.000000,22.750000
12018018,56.000000,64.000000,22.750000
12018019,64.000000,64.000000,22.750000
12018020,72.000000,64.000000,22.750000
12018021,80.000000,64.000000,22.750000
12019001,-80.000000,72.000000,22.750000
12019002,-72.000000,72.000000,22.750000
12019003,-64.000000,72.000000,22.750000
12019004,-56.000000,72.000000,22.750000
12019005,-48.000000,72.000000,22.750000
12019006,-40.000000,72.000000,22.750000
12019007,-32.000000,72.000000,22.750000
12019008,-24.000000,72.000000,22.750000
12019009,-16.000000,72.000000,22.750000
12019010,-8.000000,72.000000,22.750000
12019011,0.000000,72.000000,22.750000
12019012,8.000000,72.000000,22.750000
12019013,16.000000,72.000000,22.750000
12019014,24.000000,72.000000,22.750000
12019015,32.000000,72.000000,22.750000
12019016,40.000000,72.000000,22.750000
12019017,48.000000,72.000000,22.750000
12019018,56.000000,72.000000,22.750000
12019019,64.000000,72.000000,22.750000
12019020,72.000000,72.000000,22.750000
12019021,80.000000,72.000000,22.750000
12020001,-80.000000,80.000000,22.750000
12020002,-72.000000,80.000000,22.750000
12020003,-64.000000,80.000000,22.750000
12020004,-56.000000,80.000000,22.750000
12020005,-48.000000,80.000000,22.750000
12020006,-40.000000,80.000000,22.750000
12020007,-32.000000,80.000000,22.750000
12020008,-24.000000,80.000000,22.750000
12020009,-16.000000,80.000000,22.750000
12020010,-8.000000,80.000000,22.750000
12020011,0.000000,80.000000,22.750000
12020012,8.000000,80.000000,22.750000
12020013,16.000000,80.000000,22.750000
12020014,24.000000,80.000000,22.750000
12020015,32.000000,80.000000,22.750000
12020016,40.000000,80.000000,22.750000
12020017,48.000000,80.000000,22.750000
12020018,56.000000,80.000000,22.750000
12020019,64.000000,80.000000,22.750000
12020020,72.000000,80.000000,22.750000
12020021,80.000000,80.000000,22.750000
13001009,-16.000000,-72.000000,22.750000
13001010,-8.000000,-72.000000,22.750000
13001011,0.000000,-72.000000,22.750000
13001012,8.000000,-72.000000,22.750000
13001013,16.000000,-72.000000,22.750000
13002007,-32.000000,-64.000000,22.750000
13002008,-24.000000,-64.000000,22.750000
13002009,-16.000000,-64.000000,22.750000
13002010,-8.000000,-64.000000,22.750000
13002011,0.000000,-64.000000,22.750000
13002012,8.000000,-64.000000,22.750000
13002013,16.000000,-64.000000,22.750000
13002014,24.000000,-64.000000,22.750000
13002015,32.000000,-64.000000,22.750000
13003005,-48.000000,-56.000000,22.750000
13003006,-40.000000,-56.000000,22.750000
13003007,-32.000000,-56.000000,22.750000
13003008,-24.000000,-56.000000,22.750000
13003009,-16.000000,-56.000000,22.750000
13003010,-8.000000,-56.000000,22.750000
13003011,0.000000,-56.000000,22.750000
13003012,8.000000,-56.000000,22.750000
13003013,16.000000,-56.000000,22.750000
13003014,24.000000,-56.000000,22.750000
13003015,32.000000,-56.000000,22.750000
13003016,40.000000,-56.000000,22.750000
13003017,48.000000,-56.000000,22.750000
13004004,-56.000000,-48.000000,22.750000
13004005,-48.000000,-48.000000,22.750000
13004006,-40.000000,-48.000000,22.750000
13004007,-32.000000,-48.000000,22.750000
13004008,-24.000000,-48.000000,22.750000
13004009,-16.000000,-48.000000,22.750000
13004010,-8.000000,-48.000000,22.750000
13004011,0.000000,-48.000000,22.750000
13004012,8.000000,-48.000000,22.750000
13004013,16.000000,-48.000000,22.750000
13004014,24.000000,-48.000000,22.750000
13004015,32.000000,-48.000000,22.750000
13004016,40.000000,-48.000000,22.750000
13004017,48.000000,-48.000000,22.750000
13004018,56.000000,-48.000000,22.750000
13005004,-56.000000,-40.000000,22.750000
13005005,-48.000000,-40.000000,22.750000
13005006,-40.000000,-40.000000,22.750000
13005007,-32.000000,-40.000000,22.750000
13005008,-24.000000,-40.000000,22.750000
13005009,-16.000000,-40.000000,22.750000
13005010,-8.000000,-40.000000,22.750000
13005011,0.000000,-40.000000,22.750000
13005012,8.000000,-40.000000,22.750000
13005013,16.000000,-40.000000,22.750000
13005014,24.000000,-40.000000,22.750000
13005015,32.000000,-40.000000,22.750000
13005016,40.000000,-40.000000,22.750000
13005017,48.000000,-40.000000,22.750000
13005018,56.000000,-40.000000,22.750000
13006003,-64.000000,-32.000000,22.750000
13006004,-56.000000,-32.000000,22.750000
13006005,-48.000000,-32.000000,22.750000
13006006,-40.000000,-32.000000,22.750000
13006007,-32.000000,-32.000000,22.750000
13006008,-24.000000,-32.000000,22.750000
13006009,-16.000000,-32.000000,22.750000
13006010,-8.000000,-32.000000,22.750000
13006011,0.000000,-32.000000,22.750000
13006012,8.000000,-32.000000,22.750000
13006013,16.000000,-32.000000,22.750000
13006014,24.000000,-32.000000,22.750000
13006015,32.000000,-32.000000,22.750000
13006016,40.000000,-32.000000,22.750000
13006017,48.000000,-32.000000,22.750000
13006018,56.000000,-32.000000,22.750000
13006019,64.000000,-32.000000,22.750000
13007003,-64.000000,-24.000000,22.750000
13007004,-56.000000,-24.000000,22.750000
13007005,-48.000000,-24.000000,22.750000
13007006,-40.000000,-24.000000,22.750000
13007007,-32.000000,-24.000000,22.750000
13007008,-24.000000,-24.000000,22.750000
13007009,-16.000000,-24.000000,22.750000
13007010,-8.000000,-24.000000,22.750000
13007011,0.000000,-24.000000,22.750000
13007012,8.000000,-24.000000,22.750000
13007013,16.000000,-24.000000,22.750000
13007014,24.000000,-24.000000,22.750000
13007015,32.000000,-24.000000,22.750000
13007016,40.000000,-24.000000,22.750000
13007017,48.000000,-24.000000,22.750000
13007018,56.000000,-24.000000,22.750000
13007019,64.000000,-24.000000,22.750000
13008002,-72.000000,-16.000000,22.750000
13008003,-64.000000,-16.000000,22.750000
13008004,-56.000000,-16.000000,22.750000
13008005,-48.000000,-16.000000,22.750000
13008006,-40.000000,-16.000000,22.750000
13008007,-32.000000,-16.000000,22.750000
13008008,-24.000000,-16.000000,22.750000
13008009,-16.000000,-16.000000,22.750000
13008013,16.000000,-16.000000,22.750000
13008014,24.000000,-16.000000,22.750000
13008015,32.000000,-16.000000,22.750000
13008016,40.000000,-16.000000,22.750000
13008017,48.000000,-16.000000,22.750000
13008018,56.000000,-16.000000,22.750000
13008019,64.000000,-16.000000,22.750000
13008020,72.000000,-16.000000,22.750000
13009002,-72.000000,-8.000000,22.750000
13009003,-64.000000,-8.000000,22.750000
13009004,-56.000000,-8.000000,22.750000
13009005,-48.000000,-8.000000,22.750000
13009006,-40.000000,-8.000000,22.750000
13009007,-32.000000,-8.000000,22.750000
13009008,-24.000000,-8.000000,22.750000
13009014,24.000000,-8.000000,22.750000
13009015,32.000000,-8.000000,22.750000
13009016,40.000000,-8.000000,22.750000
13009017,48.000000,-8.000000,22.750000
13009018,56.000000,-8.000000,22.750000
13009019,64.000000,-8.000000,22.750000
13009020,72.000000,-8.000000,22.750000
13010002,-72.000000,0.000000,22.750000
13010003,-64.000000,0.000000,22.750000
13010004,-56.000000,0.000000,22.750000
13010005,-48.000000,0.000000,22.750000
13010006,-40.000000,0.000000,22.750000
13010007,-32.000000,0.000000,22.750000
13010008,-24.000000,0.000000,22.750000
13010014,24.000000,0.000000,22.750000
13010015,32.000000,0.000000,22.750000
13010016,40.000000,0.000000,22.750000
13010017,48.000000,0.000000,22.750000
13010018,56.000000,0.000000,22.750000
13010019,64.000000,0.000000,22.750000
13010020,72.000000,0.000000,22.750000
13011002,-72.000000,8.000000,22.750000
13011003,-64.000000,8.000000,22.750000
13011004,-56.000000,8.000000,22.750000
13011005,-48.000000,8.000000,22.750000
13011006,-40.000000,8.000000,22.750000
13011007,-32.000000,8.000000,22.750000
13011008,-24.000000,8.000000,22.750000
13011014,24.000000,8.000000,22.750000
13011015,32.000000,8.000000,22.750000
13011016,40.000000,8.000000,22.750000
13011017,48.000000,8.000000,22.750000
13011018,56.000000,8.000000,22.750000
13011019,64.000000,8.000000,22.750000
13011020,72.000000,8.000000,22.750000
13012002,-72.000000,16.000000,22.750000
13012003,-64.000000,16.000000,22.750000
13012004,-56.000000,16.000000,22.750000
13012005,-48.000000,16.000000,22.750000
13012006,-40.000000,16.000000,22.750000
13012007,-32.000000,16.000000,22.750000
13012008,-24.000000,16.000000,22.750000
13012009,-16.000000,16.000000,22.750000
13012013,16.000000,16.000000,22.750000
13012014,24.000000,16.000000,22.750000
13012015,32.000000,16.000000,22.750000
13012016,40.000000,16.000000,22.750000
13012017,48.000000,16.000000,22.750000
13012018,56.000000,16.000000,22.750000
13012019,64.000000,16.000000,22.750000
13012020,72.000000,16.000000,22.750000
13013003,-64.000000,24.000000,22.750000
13013004,-56.000000,24.000000,22.750000
13013005,-48.000000,24.000000,22.750000
13013006,-40.000000,24.000000,22.750000
13013007,-32.000000,24.000000,22.750000
13013008,-24.000000,24.000000,22.750000
13013009,-16.000000,24.000000,22.750000
13013010,-8.000000,24.000000,22.750000
13013011,0.000000,24.000000,22.750000
13013012,8.000000,24.000000,22.750000
13013013,16.000000,24.000000,22.750000
13013014,24.000000,24.000000,22.750000
13013015,32.000000,24.000000,22.750000
13013016,40.000000,24.000000,22.750000
13013017,48.000000,24.000000,22.750000
13013018,56.000000,24.000000,22.750000
13013019,64.000000,24.000000,22.750000
13014003,-64.000000,32.000000,22.750000
13014004,-56.000000,32.000000,22.750000
13014005,-48.000000,32.000000,22.750000
13014006,-40.000000,32.000000,22.750000
13014007,-32.000000,32.000000,22.750000
13014008,-24.000000,32.000000,22.750000
13014009,-16.000000,32.000000,22.750000
13014010,-8.000000,32.000000,22.750000
13014011,0.000000,32.000000,22.750000
13014012,8.000000,32.000000,22.750000
13014013,16.000000,32.000000,22.750000
13014014,24.000000,32.000000,22.750000
13014015,32.000000,32.000000,22.750000
13014016,40.000000,32.000000,22.750000
13014017,48.000000,32.000000,22.750000
13014018,56.000000,32.000000,22.750000
13014019,64.000000,32.000000,22.750000
13015004,-56.000000,40.000000,22.750000
13015005,-48.000000,40.000000,22.750000
13015006,-40.000000,40.000000,22.750000
13015007,-32.000000,40.000000,22.750000
13015008,-24.000000,40.000000,22.750000
13015009,-16.000000,40.000000,22.750000
13015010,-8.000000,40.000000,22.750000
13015011,0.000000,40.000000,22.750000
13015012,8.000000,40.000000,22.750000
13015013,16.000000,40.000000,22.750000
13015014,24.000000,40.000000,22.750000
13015015,32.000000,40.000000,22.750000
13015016,40.000000,40.000000,22.750000
13015017,48.000000,40.000000,22.750000
13015018,56.000000,40.000000,22.750000
13016004,-56.000000,48.000000,22.750000
13016005,-48.000000,48.000000,22.750000
13016006,-40.000000,48.000000,22.750000
13016007,-32.000000,48.000000,22.750000
13016008,-24.000000,48.000000,22.750000
13016009,-16.000000,48.000000,22.750000
13016010,-8.000000,48.000000,22.750000
13016011,0.000000,48.000000,22.750000
13016012,8.000000,48.000000,22.750000
13016013,16.000000,48.000000,22.750000
13016014,24.000000,48.000000,22.750000
13016015,32.000000,48.000000,22.750000
13016016,40.000000,48.000000,22.750000
13016017,48.000000,48.000000,22.750000
13016018,56.000000,48.000000,22.750000
13017005,-48.000000,56.000000,22.750000
13017006,-40.000000,56.000000,22.750000
13017007,-32.000000,56.000000,22.750000
13017008,-24.000000,56.000000,22.750000
13017009,-16.000000,56.000000,22.750000
13017010,-8.000000,56.000000,22.750000
13017011,0.000000,56.000000,22.750000
13017012,8.000000,56.000000,22.750000
13017013,16.000000,56.000000,22.750000
13017014,24.000000,56.000000,22.750000
13017015,32.000000,56.000000,22.750000
13017016,40.000000,56.000000,22.750000
13017017,48.000000,56.000000,22.750000
13018007,-32.000000,64.000000,22.750000
13018008,-24.000000,64.000000,22.750000
13018009,-16.000000,64.000000,22.750000
13018010,-8.000000,64.000000,22.750000
13018011,0.000000,64.000000,22.750000
13018012,8.000000,64.000000,22.750000
13018013,16.000000,64.000000,22.750000
13018014,24.000000,64.000000,22.750000
13018015,32.000000,64.000000,22.750000
13019009,-16.000000,72.000000,22.750000
13019010,-8.000000,72.000000,22.750000
13019011,0.000000,72.000000,22.750000
13019012,8.000000,72.000000,22.750000
13019013,16.000000,72.000000,22.750000
14001009,-16.000000,-72.000000,24.750000
14001010,-8.000000,-72.000000,24.750000
14001011,0.000000,-72.000000,24.750000
14001012,8.000000,-72.000000,24.750000
14001013,16.000000,-72.000000,24.750000
14002007,-32.000000,-64.000000,24.750000
14002008,-24.000000,-64.000000,24.750000
14002009,-16.000000,-64.000000,24.750000
14002010,-8.000000,-64.000000,24.750000
14002011,0.000000,-64.000000,24.750000
14002012,8.000000,-64.000000,24.750000
14002013,16.000000,-64.000000,24.750000
14002014,24.000000,-64.000000,24.750000
14002015,32.000000,-64.000000,24.750000
14003005,-48.000000,-56.000000,24.750000
14003006,-40.000000,-56.000000,24.750000
14003007,-32.000000,-56.000000,24.750000
14003008,-24.000000,-56.000000,24.750000
14003009,-16.000000,-56.000000,24.750000
14003010,-8.000000,-56.000000,24.750000
14003011,0.000000,-56.000000,24.750000
14003012,8.000000,-56.000000,24.750000
14003013,16.000000,-56.000000,24.750000
14003014,24.000000,-56.000000,24.750000
14003015,32.000000,-56.000000,24.750000
14003016,40.000000,-56.000000,24.750000
14003017,48.000000,-56.000000,24.750000
14004004,-56.000000,-48.000000,24.750000
14004005,-48.000000,-48.000000,24.750000
14004006,-40.000000,-48.000000,24.750000
14004007,-32.000000,-48.000000,24.750000
14004008,-24.000000,-48.000000,24.750000
14004009,-16.000000,-48.000000,24.750000
14004010,-8.000000,-48.000000,24.750000
14004011,0.000000,-48.000000,24.750000
14004012,8.000000,-48.000000,24.750000
14004013,16.000000,-48.000000,24.750000
14004014,24.000000,-48.000000,24.750000
14004015,32.000000,-48.000000,24.750000
14004016,40.000000,-48.000000,24.750000
14004017,48.000000,-48.000000,24.750000
14004018,56.000000,-48.000000,24.750000
14005004,-56.000000,-40.000000,24.750000
14005005,-48.000000,-40.000000,24.750000
14005006,-40.000000,-40.000000,24.750000
14005007,-32.000000,-40.000000,24.750000
14005008,-24.000000,-40.000000,24.750000
14005009,-16.000000,-40.000000,24.750000
14005010,-8.000000,-40.000000,24.750000
14005011,0.000000,-40.000000,24.750000
14005012,8.000000,-40.000000,24.750000
14005013,16.000000,-40.000000,24.750000
14005014,24.000000,-40.000000,24.750000
14005015,32.000000,-40.000000,24.750000
14005016,40.000000,-40.000000,24.750000
14005017,48.000000,-40.000000,24.750000
14005018,56.000000,-40.000000,24.750000
14006003,-64.000000,-32.000000,24.750000
14006004,-56.000000,-32.000000,24.750000
14006005,-48.000000,-32.000000,24.750000
14006006,-40.000000,-32.000000,24.750000
14006007,-32.000000,-32.000000,24.750000
14006008,-24.000000,-32.000000,24.750000
14006009,-16.000000,-32.000000,24.750000
14006010,-8.000000,-32.000000,24.750000
14006011,0.000000,-32.000000,24.750000
14006012,8.000000,-32.000000,24.750000
14006013,16.000000,-32.000000,24.750000
14006014,24.000000,-32.000000,24.750000
14006015,32.000000,-32.000000,24.750000
14006016,40.000000,-32.000000,24.750000
14006017,48.000000,-32.000000,24.750000
14006018,56.000000,-32.000000,24.750000
14006019,64.000000,-32.000000,24.750000
14007003,-64.000000,-24.000000,24.750000
14007004,-56.000000,-24.000000,24.750000
14007005,-48.000000,-24.000000,24.750000
14007006,-40.000000,-24.000000,24.750000
14007007,-32.000000,-24.000000,24.750000
14007008,-24.000000,-24.000000,24.750000
14007009,-16.000000,-24.000000,24.750000
14007010,-8.000000,-24.000000,24.750000
14007011,0.000000,-24.000000,24.750000
14007012,8.000000,-24.000000,24.750000
14007013,16.000000,-24.000000,24.750000
14007014,24.000000,-24.000000,24.750000
14007015,32.000000,-24.000000,24.750000
14007016,40.000000,-24.000000,24.750000
14007017,48.000000,-24.000000,24.750000
14007018,56.000000,-24.000000,24.750000
14007019,64.000000,-24.000000,24.750000
14008002,-72.000000,-16.000000,24.750000
14008003,-64.000000,-16.000000,24.750000
14008004,-56.000000,-16.000000,24.750000
14008005,-48.000000,-16.000000,24.750000
14008006,-40.000000,-16.000000,24.750000
14008007,-32.000000,-16.000000,24.750000
14008008,-24.000000,-16.000000,24.750000
14008009,-16.000000,-16.000000,24.750000
14008013,16.000000,-16.000000,24.750000
14008014,24.000000,-16.000000,24.750000
14008015,32.000000,-16.000000,24.750000
14008016,40.000000,-16.000000,24.750000
14008017,48.000000,-16.000000,24.750000
14008018,56.000000,-16.000000,24.750000
14008019,64.000000,-16.000000,24.750000
14008020,72.000000,-16.000000,24.750000
14009002,-72.000000,-8.000000,24.750000
14009003,-64.000000,-8.000000,24.750000
14009004,-56.000000,-8.000000,24.750000
14009005,-48.000000,-8.000000,24.750000
14009006,-40.000000,-8.000000,24.750000
14009007,-32.000000,-8.000000,24.750000
14009008,-24.000000,-8.000000,24.750000
14009014,24.000000,-8.000000,24.750000
14009015,32.000000,-8.000000,24.750000
14009016,40.000000,-8.000000,24.750000
14009017,48.000000,-8.000000,24.750000
14009018,56.000000,-8.000000,24.750000
14009019,64.000000,-8.000000,24.750000
14009020,72.000000,-8.000000,24.750000
14010002,-72.000000,0.000000,24.750000
14010003,-64.000000,0.000000,24.750000
14010004,-56.000000,0.000000,24.750000
14010005,-48.000000,0.000000,24.750000
14010006,-40.000000,0.000000,24.750000
14010007,-32.000000,0.000000,24.750000
14010008,-24.000000,0.000000,24.750000
14010014,24.000000,0.000000,24.750000
14010015,32.000000,0.000000,24.750000
14010016,40.000000,0.000000,24.750000
14010017,48.000000,0.000000,24.750000
14010018,56.000000,0.000000,24.750000
14010019,64.000000,0.000000,24.750000
14010020,72.000000,0.000000,24.750000
14011002,-72.000000,8.000000,24.750000
14011003,-64.000000,8.000000,24.750000
14011004,-56.000000,8.000000,24.750000
14011005,-48.000000,8.000000,24.750000
14011006,-40.000000,8.000000,24.750000
14011007,-32.000000,8.000000,24.750000
14011008,-24.000000,8.000000,24.750000
14011014,24.000000,8.000000,24.750000
14011015,32.000000,8.000000,24.750000
14011016,40.000000,8.000000,24.750000
14011017,48.000000,8.000000,24.750000
14011018,56.000000,8.000000,24.750000
14011019,64.000000,8.000000,24.750000
14011020,72.000000,8.000000,24.750000
14012002,-72.000000,16.000000,24.750000
14012003,-64.000000,16.000000,24.750000
14012004,-56.000000,16.000000,24.750000
14012005,-48.000000,16.000000,24.750000
14012006,-40.000000,16.000000,24.750000
14012007,-32.000000,16.000000,24.750000
14012008,-24.000000,16.000000,24.750000
14012009,-16.000000,16.000000,24.750000
14012013,16.000000,16.000000,24.750000
14012014,24.000000,16.000000,24.750000
14012015,32.000000,16.000000,24.750000
14012016,40.000000,16.000000,24.750000
14012017,48.000000,16.000000,24.750000
14012018,56.000000,16.000000,24.750000
14012019,64.000000,16.000000,24.750000
14012020,72.000000,16.000000,24.750000
14013003,-64.000000,24.000000,24.750000
14013004,-56.000000,24.000000,24.750000
14013005,-48.000000,24.000000,24.750000
14013006,-40.000000,24.000000,24.750000
14013007,-32.000000,24.000000,24.750000
14013008,-24.000000,24.000000,24.750000
14013009,-16.000000,24.000000,24.750000
14013010,-8.000000,24.000000,24.750000
14013011,0.000000,24.000000,24.750000
14013012,8.000000,24.000000,24.750000
14013013,16.000000,24.000000,24.750000
14013014,24.000000,24.000000,24.750000
14013015,32.000000,24.000000,24.750000
14013016,40.000000,24.000000,24.750000
14013017,48.000000,24.000000,24.750000
14013018,56.000000,24.000000,24.750000
14013019,64.000000,24.000000,24.750000
14014003,-64.000000,32.000000,24.750000
14014004,-56.000000,32.000000,24.750000
14014005,-48.000000,32.000000,24.750000
14014006,-40.000000,32.000000,24.750000
14014007,-32.000000,32.000000,24.750000
14014008,-24.000000,32.000000,24.750000
14014009,-16.000000,32.000000,24.750000
14014010,-8.000000,32.000000,24.750000
14014011,0.000000,32.000000,24.750000
14014012,8.000000,32.000000,24.750000
14014013,16.000000,32.000000,24.750000
14014014,24.000000,32.000000,24.750000
14014015,32.000000,32.000000,24.750000
14014016,40.000000,32.000000,24.750000
14014017,48.000000,32.000000,24.750000
14014018,56.000000,32.000000,24.750000
14014019,64.000000,32.000000,24.750000
14015004,-56.000000,40.000000,24.750000
14015005,-48.000000,40.000000,24.750000
14015006,-40.000000,40.000000,24.750000
14015007,-32.000000,40.000000,24.750000
14015008,-24.000000,40.000000,24.750000
14015009,-16.000000,40.000000,24.750000
14015010,-8.000000,40.000000,24.750000
14015011,0.000000,40.000000,24.750000
14015012,8.000000,40.000000,24.750000
14015013,16.000000,40.000000,24.750000
14015014,24.000000,40.000000,24.750000
14015015,32.000000,40.000000,24.750000
14015016,40.000000,40.000000,24.750000
14015017,48.000000,40.000000,24.750000
14015018,56.000000,40.000000,24.750000
14016004,-56.000000,48.000000,24.750000
14016005,-48.000000,48.000000,24.750000
14016006,-40.000000,48.000000,24.750000
14016007,-32.000000,48.000000,24.750000
14016008,-24.000000,48.000000,24.750000
14016009,-16.000000,48.000000,24.750000
14016010,-8.000000,48.000000,24.750000
14016011,0.000000,48.000000,24.750000
14016012,8.000000,48.000000,24.750000
14016013,16.000000,48.000000,24.750000
14016014,24.000000,48.000000,24.750000
14016015,32.000000,48.000000,24.750000
14016016,40.000000,48.000000,24.750000
14016017,48.000000,48.000000,24.750000
14016018,56.000000,48.000000,24.750000
14017005,-48.000000,56.000000,24.750000
14017006,-40.000000,56.000000,24.750000
14017007,-32.000000,56.000000,24.750000
14017008,-24.000000,56.000000,24.750000
14017009,-16.000000,56.000000,24.750000
14017010,-8.000000,56.000000,24.750000
14017011,0.000000,56.000000,24.750000
14017012,8.000000,56.000000,24.750000
14017013,16.000000,56.000000,24.750000
14017014,24.000000,56.000000,24.750000
14017015,32.000000,56.000000,24.750000
14017016,40.000000,56.000000,24.750000
14017017,48.000000,56.000000,24.750000
14018007,-32.000000,64.000000,24.750000
14018008,-24.000000,64.000000,24.750000
14018009,-16.000000,64.000000,24.750000
14018010,-8.000000,64.000000,24.750000
14018011,0.000000,64.000000,24.750000
14018012,8.000000,64.000000,24.750000
14018013,16.000000,64.000000,24.750000
14018014,24.000000,64.000000,24.750000
14018015,32.000000,64.000000,24.750000
14019009,-16.000000,72.000000,24.750000
14019010,-8.000000,72.000000,24.750000
14019011,0.000000,72.000000,24.750000
14019012,8.000000,72.000000,24.750000
14019013,16.000000,72.000000,24.750000
15001009,-16.000000,-72.000000,26.750000
15001010,-8.000000,-72.000000,26.750000
15001011,0.000000,-72.000000,26.750000
15001012,8.000000,-72.000000,26.750000
15001013,16.000000,-72.000000,26.750000
15002007,-32.000000,-64.000000,26.750000
15002008,-24.000000,-64.000000,26.750000
15002009,-16.000000,-64.000000,26.750000
15002010,-8.000000,-64.000000,26.750000
15002011,0.000000,-64.000000,26.750000
15002012,8.000000,-64.000000,26.750000
15002013,16.000000,-64.000000,26.750000
15002014,24.000000,-64.000000,26.750000
15002015,32.000000,-64.000000,26.750000
15003005,-48.000000,-56.000000,26.750000
15003006,-40.000000,-56.000000,26.750000
15003007,-32.000000,-56.000000,26.750000
15003008,-24.000000,-56.000000,26.750000
15003009,-16.000000,-56.000000,26.750000
15003010,-8.000000,-56.000000,26.750000
15003011,0.000000,-56.000000,26.750000
15003012,8.000000,-56.000000,26.750000
15003013,16.000000,-56.000000,26.750000
15003014,24.000000,-56.000000,26.750000
15003015,32.000000,-56.000000,26.750000
15003016,40.000000,-56.000000,26.750000
15003017,48.000000,-56.000000,26.750000
15004004,-56.000000,-48.000000,26.750000
15004005,-48.000000,-48.000000,26.750000
15004006,-40.000000,-48.000000,26.750000
15004007,-32.000000,-48.000000,26.750000
15004008,-24.000000,-48.000000,26.750000
15004009,-16.000000,-48.000000,26.750000
15004010,-8.000000,-48.000000,26.750000
15004011,0.000000,-48.000000,26.750000
15004012,8.000000,-48.000000,26.750000
15004013,16.000000,-48.000000,26.750000
15004014,24.000000,-48.000000,26.750000
15004015,32.000000,-48.000000,26.750000
15004016,40.000000,-48.000000,26.750000
15004017,48.000000,-48.000000,26.750000
15004018,56.000000,-48.000000,26.750000
15005004,-56.000000,-40.000000,26.750000
15005005,-48.000000,-40.000000,26.750000
15005006,-40.000000,-40.000000,26.750000
15005007,-32.000000,-40.000000,26.750000
15005008,-24.000000,-40.000000,26.750000
15005009,-16.000000,-40.000000,26.750000
15005010,-8.000000,-40.000000,26.750000
15005011,0.000000,-40.000000,26.750000
15005012,8.000000,-40.000000,26.750000
15005013,16.000000,-40.000000,26.750000
15005014,24.000000,-40.000000,26.750000
15005015,32.000000,-40.000000,26.750000
15005016,40.000000,-40.000000,26.750000
15005017,48.000000,-40.000000,26.750000
15005018,56.000000,-40.000000,26.750000
15006003,-64.000000,-32.000000,26.750000
15006004,-56.000000,-32.000000,26.750000
15006005,-48.000000,-32.000000,26.750000
15006006,-40.000000,-32.000000,26.750000
15006007,-32.000000,-32.000000,26.750000
15006008,-24.000000,-32.000000,26.750000
15006009,-16.000000,-32.000000,26.750000
15006010,-8.000000,-32.000000,26.750000
15006011,0.000000,-32.000000,26.750000
15006012,8.000000,-32.000000,26.750000
15006013,16.000000,-32.000000,26.750000
15006014,24.000000,-32.000000,26.750000
15006015,32.000000,-32.000000,26.750000
15006016,40.000000,-32.000000,26.750000
15006017,48.000000,-32.000000,26.750000
15006018,56.000000,-32.000000,26.750000
15006019,64.000000,-32.000000,26.750000
15007003,-64.000000,-24.000000,26.750000
15007004,-56.000000,-24.000000,26.750000
15007005,-48.000000,-24.000000,26.750000
15007006,-40.000000,-24.000000,26.750000
15007007,-32.000000,-24.000000,26.750000
15007008,-24.000000,-24.000000,26.750000
15007009,-16.000000,-24.000000,26.750000
15007010,-8.000000,-24.000000,26.750000
15007011,0.000000,-24.000000,26.750000
15007012,8.000000,-24.000000,26.750000
15007013,16.000000,-24.000000,26.750000
15007014,24.000000,-24.000000,26.750000
15007015,32.000000,-24.000000,26.750000
15007016,40.000000,-24.000000,26.750000
15007017,48.000000,-24.000000,26.750000
15007018,56.000000,-24.000000,26.750000
15007019,64.000000,-24.000000,26.750000
15008002,-72.000000,-16.000000,26.750000
15008003,-64.000000,-16.000000,26.750000
15008004,-56.000000,-16.000000,26.750000
15008005,-48.000000,-16.000000,26.750000
15008006,-40.000000,-16.000000,26.750000
15008007,-32.000000,-16.000000,26.750000
15008008,-24.000000,-16.000000,26.750000
15008009,-16.000000,-16.000000,26.750000
15008013,16.000000,-16.000000,26.750000
15008014,24.000000,-16.000000,26.750000
15008015,32.000000,-16.000000,26.750000
15008016,40.000000,-16.000000,26.750000
15008017,48.000000,-16.000000,26.750000
15008018,56.000000,-16.000000,26.750000
15008019,64.000000,-16.000000,26.750000
15008020,72.000000,-16.000000,26.750000
15009002,-72.000000,-8.000000,26.750000
15009003,-64.000000,-8.000000,26.750000
15009004,-56.000000,-8.000000,26.750000
15009005,-48.000000,-8.000000,26.750000
15009006,-40.000000,-8.000000,26.750000
15009007,-32.000000,-8.000000,26.750000
15009008,-24.000000,-8.000000,26.750000
15009014,24.000000,-8.000000,26.750000
15009015,32.000000,-8.000000,26.750000
15009016,40.000000,-8.000000,26.750000
15009017,48.000000,-8.000000,26.750000
15009018,56.000000,-8.000000,26.750000
15009019,64.000000,-8.000000,26.750000
15009020,72.000000,-8.000000,26.750000
15010002,-72.000000,0.000000,26.750000
15010003,-64.000000,0.000000,26.750000
15010004,-56.000000,0.000000,26.750000
15010005,-48.000000,0.000000,26.750000
15010006,-40.000000,0.000000,26.750000
15010007,-32.000000,0.000000,26.750000
15010008,-24.000000,0.000000,26.750000
15010014,24.000000,0.000000,26.750000
15010015,32.000000,0.000000,26.750000
15010016,40.000000,0.000000,26.750000
15010017,48.000000,0.000000,26.750000
15010018,56.000000,0.000000,26.750000
15010019,64.000000,0.000000,26.750000
15010020,72.000000,0.000000,26.750000
15011002,-72.000000,8.000000,26.750000
15011003,-64.000000,8.000000,26.750000
15011004,-56.000000,8.000000,26.750000
15011005,-48.000000,8.000000,26.750000
15011006,-40.000000,8.000000,26.750000
15011007,-32.000000,8.000000,26.750000
15011008,-24.000000,8.000000,26.750000
15011014,24.000000,8.000000,26.750000
15011015,32.000000,8.000000,26.750000
15011016,40.000000,8.000000,26.750000
15011017,48.000000,8.000000,26.750000
15011018,56.000000,8.000000,26.750000
15011019,64.000000,8.000000,26.750000
15011020,72.000000,8.000000,26.750000
15012002,-72.000000,16.000000,26.750000
15012003,-64.000000,16.000000,26.750000
15012004,-56.000000,16.000000,26.750000
15012005,-48.000000,16.000000,26.750000
15012006,-40.000000,16.000000,26.750000
15012007,-32.000000,16.000000,26.750000
15012008,-24.000000,16.000000,26.750000
15012009,-16.000000,16.000000,26.750000
15012013,16.000000,16.000000,26.750000
15012014,24.000000,16.000000,26.750000
15012015,32.000000,16.000000,26.750000
15012016,40.000000,16.000000,26.750000
15012017,48.000000,16.000000,26.750000
15012018,56.000000,16.000000,26.750000
15012019,64.000000,16.000000,26.750000
15012020,72.000000,16.000000,26.750000
15013003,-64.000000,24.000000,26.750000
15013004,-56.000000,24.000000,26.750000
15013005,-48.000000,24.000000,26.750000
15013006,-40.000000,24.000000,26.750000
15013007,-32.000000,24.000000,26.750000
15013008,-24.000000,24.000000,26.750000
15013009,-16.000000,24.000000,26.750000
15013010,-8.000000,24.000000,26.750000
15013011,0.000000,24.000000,26.750000
15013012,8.000000,24.000000,26.750000
15013013,16.000000,24.000000,26.750000
15013014,24.000000,24.000000,26.750000
15013015,32.000000,24.000000,26.750000
15013016,40.000000,24.000000,26.750000
15013017,48.000000,24.000000,26.750000
15013018,56.000000,24.000000,26.750000
15013019,64.000000,24.000000,26.750000
15014003,-64.000000,32.000000,26.750000
15014004,-56.000000,32.000000,26.750000
15014005,-48.000000,32.000000,26.750000
15014006,-40.000000,32.000000,26.750000
15014007,-32.000000,32.000000,26.750000
15014008,-24.000000,32.000000,26.750000
15014009,-16.000000,32.000000,26.750000
15014010,-8.000000,32.000000,26.750000
15014011,0.000000,32.000000,26.750000
15014012,8.000000,32.000000,26.750000
15014013,16.000000,32.000000,26.750000
15014014,24.000000,32.000000,26.750000
15014015,32.000000,32.000000,26.750000
15014016,40.000000,32.000000,26.750000
15014017,48.000000,32.000000,26.750000
15014018,56.000000,32.000000,26.750000
15014019,64.000000,32.000000,26.750000
15015004,-56.000000,40.000000,26.750000
15015005,-48.000000,40.000000,26.750000
15015006,-40.000000,40.000000,26.750000
15015007,-32.000000,40.000000,26.750000
15015008,-24.000000,40.000000,26.750000
15015009,-16.000000,40.000000,26.750000
15015010,-8.000000,40.000000,26.750000
15015011,0.000000,40.000000,26.750000
15015012,8.000000,40.000000,26.750000
15015013,16.000000,40.000000,26.750000
15015014,24.000000,40.000000,26.750000
15015015,32.000000,40.000000,26.750000
15015016,40.000000,40.000000,26.750000
15015017,48.000000,40.000000,26.750000
15015018,56.000000,40.000000,26.750000
15016004,-56.000000,48.000000,26.750000
15016005,-48.000000,48.000000,26.750000
15016006,-40.000000,48.000000,26.750000
15016007,-32.000000,48.000000,26.750000
15016008,-24.000000,48.000000,26.750000
15016009,-16.000000,48.000000,26.750000
15016010,-8.000000,48.000000,26.750000
15016011,0.000000,48.000000,26.750000
15016012,8.000000,48.000000,26.750000
15016013,16.000000,48.000000,26.750000
15016014,24.000000,48.000000,26.750000
15016015,32.000000,48.000000,26.750000
15016016,40.000000,48.000000,26.750000
15016017,48.000000,48.000000,26.750000
15016018,56.000000,48.000000,26.750000
15017005,-48.000000,56.000000,26.750000
15017006,-40.000000,56.000000,26.750000
15017007,-32.000000,56.000000,26.750000
15017008,-24.000000,56.000000,26.750000
15017009,-16.000000,56.000000,26.750000
15017010,-8.000000,56.000000,26.750000
15017011,0.000000,56.000000,26.750000
15017012,8.000000,56.000000,26.750000
15017013,16.000000,56.000000,26.750000
15017014,24.000000,56.000000,26.750000
15017015,32.000000,56.000000,26.750000
15017016,40.000000,56.000000,26.750000
15017017,48.000000,56.000000,26.750000
15018007,-32.000000,64.000000,26.750000
15018008,-24.000000,64.000000,26.750000
15018009,-16.000000,64.000000,26.750000
15018010,-8.000000,64.000000,26.750000
15018011,0.000000,64.000000,26.750000
15018012,8.000000,64.000000,26.750000
15018013,16.000000,64.000000,26.750000
15018014,24.000000,64.000000,26.750000
15018015,32.000000,64.000000,26.750000
15019009,-16.000000,72.000000,26.750000
15019010,-8.000000,72.000000,26.750000
15019011,0.000000,72.000000,26.750000
15019012,8.000000,72.000000,26.750000
15019013,16.000000,72.000000,26.750000
16001009,-16.000000,-72.000000,28.750000
16001010,-8.000000,-72.000000,28.750000
16001011,0.000000,-72.000000,28.750000
16001012,8.000000,-72.000000,28.750000
16001013,16.000000,-72.000000,28.750000
16002007,-32.000000,-64.000000,28.750000
16002008,-24.000000,-64.000000,28.750000
16002009,-16.000000,-64.000000,28.750000
16002010,-8.000000,-64.000000,28.750000
16002011,0.000000,-64.000000,28.750000
16002012,8.000000,-64.000000,28.750000
16002013,16.000000,-64.000000,28.750000
16002014,24.000000,-64.000000,28.750000
16002015,32.000000,-64.000000,28.750000
16003005,-48.000000,-56.000000,28.750000
16003006,-40.000000,-56.000000,28.750000
16003007,-32.000000,-56.000000,28.750000
16003008,-24.000000,-56.000000,28.750000
16003009,-16.000000,-56.000000,28.750000
16003010,-8.000000,-56.000000,28.750000
16003011,0.000000,-56.000000,28.750000
16003012,8.000000,-56.000000,28.750000
16003013,16.000000,-56.000000,28.750000
16003014,24.000000,-56.000000,28.750000
16003015,32.000000,-56.000000,28.750000
16003016,40.000000,-56.000000,28.750000
16003017,48.000000,-56.000000,28.750000
16004004,-56.000000,-48.000000,28.750000
16004005,-48.000000,-48.000000,28.750000
16004006,-40.000000,-48.000000,28.750000
16004007,-32.000000,-48.000000,28.750000
16004008,-24.000000,-48.000000,28.750000
16004009,-16.000000,-48.000000,28.750000
16004010,-8.000000,-48.000000,28.750000
16004011,0.000000,-48.000000,28.750000
16004012,8.000000,-48.000000,28.750000
16004013,16.000000,-48.000000,28.750000
16004014,24.000000,-48.000000,28.750000
16004015,32.000000,-48.000000,28.750000
16004016,40.000000,-48.000000,28.750000
16004017,48.000000,-48.000000,28.750000
16004018,56.000000,-48.000000,28.750000
16005004,-56.000000,-40.000000,28.750000
16005005,-48.000000,-40.000000,28.750000
16005006,-40.000000,-40.000000,28.750000
16005007,-32.000000,-40.000000,28.750000
16005008,-24.000000,-40.000000,28.750000
16005009,-16.000000,-40.000000,28.750000
16005010,-8.000000,-40.000000,28.750000
16005011,0.000000,-40.000000,28.750000
16005012,8.000000,-40.000000,28.750000
16005013,16.000000,-40.000000,28.750000
16005014,24.000000,-40.000000,28.750000
16005015,32.000000,-40.000000,28.750000
16005016,40.000000,-40.000000,28.750000
16005017,48.000000,-40.000000,28.750000
16005018,56.000000,-40.000000,28.750000
16006003,-64.000000,-32.000000,28.750000
16006004,-56.000000,-32.000000,28.750000
16006005,-48.000000,-32.000000,28.750000
16006006,-40.000000,-32.000000,28.750000
16006007,-32.000000,-32.000000,28.750000
16006008,-24.000000,-32.000000,28.750000
16006009,-16.000000,-32.000000,28.750000
16006010,-8.000000,-32.000000,28.750000
16006011,0.000000,-32.000000,28.750000
16006012,8.000000,-32.000000,28.750000
16006013,16.000000,-32.000000,28.750000
16006014,24.000000,-32.000000,28.750000
16006015,32.000000,-32.000000,28.750000
16006016,40.000000,-32.000000,28.750000
16006017,48.000000,-32.000000,28.750000
16006018,56.000000,-32.000000,28.750000
16006019,64.000000,-32.000000,28.750000
16007003,-64.000000,-24.000000,28.750000
16007004,-56.000000,-24.000000,28.750000
16007005,-48.000000,-24.000000,28.750000
16007006,-40.000000,-24.000000,28.750000
16007007,-32.000000,-24.000000,28.750000
16007008,-24.000000,-24.000000,28.750000
16007009,-16.000000,-24.000000,28.750000
16007010,-8.000000,-24.000000,28.750000
16007011,0.000000,-24.000000,28.750000
16007012,8.000000,-24.000000,28.750000
16007013,16.000000,-24.000000,28.750000
16007014,24.000000,-24.000000,28.750000
16007015,32.000000,-24.000000,28.750000
16007016,40.000000,-24.000000,28.750000
16007017,48.000000,-24.000000,28.750000
16007018,56.000000,-24.000000,28.750000
16007019,64.000000,-24.000000,28.750000
16008002,-72.000000,-16.000000,28.750000
16008003,-64.000000,-16.000000,28.750000
16008004,-56.000000,-16.000000,28.750000
16008005,-48.000000,-16.000000,28.750000
16008006,-40.000000,-16.000000,28.750000
16008007,-32.000000,-16.000000,28.750000
16008008,-24.000000,-16.000000,28.750000
16008009,-16.000000,-16.000000,28.750000
16008013,16.000000,-16.000000,28.750000
16008014,24.000000,-16.000000,28.750000
16008015,32.000000,-16.000000,28.750000
16008016,40.000000,-16.000000,28.750000
16008017,48.000000,-16.000000,28.750000
16008018,56.000000,-16.000000,28.750000
16008019,64.000000,-16.000000,28.750000
16008020,72.000000,-16.000000,28.750000
16009002,-72.000000,-8.000000,28.750000
16009003,-64.000000,-8.000000,28.750000
16009004,-56.000000,-8.000000,28.750000
16009005,-48.000000,-8.000000,28.750000
16009006,-40.000000,-8.000000,28.750000
16009007,-32.000000,-8.000000,28.750000
16009008,-24.000000,-8.000000,28.750000
16009014,24.000000,-8.000000,28.750000
16009015,32.000000,-8.000000,28.750000
16009016,40.000000,-8.000000,28.750000
16009017,48.000000,-8.000000,28.750000
16009018,56.000000,-8.000000,28.750000
16009019,64.000000,-8.000000,28.750000
16009020,72.000000,-8.000000,28.750000
16010002,-72.000000,0.000000,28.750000
16010003,-64.000000,0.000000,28.750000
16010004,-56.000000,0.000000,28.750000
16010005,-48.000000,0.000000,28.750000
16010006,-40.000000,0.000000,28.750000
16010007,-32.000000,0.000000,28.750000
16010008,-24.000000,0.000000,28.750000
16010014,24.000000,0.000000,28.750000
16010015,32.000000,0.000000,28.750000
16010016,40.000000,0.000000,28.750000
16010017,48.000000,0.000000,28.750000
16010018,56.000000,0.000000,28.750000
16010019,64.000000,0.000000,28.750000
16010020,72.000000,0.000000,28.750000
16011002,-72.000000,8.000000,28.750000
16011003,-64.000000,8.000000,28.750000
16011004,-56.000000,8.000000,28.750000
16011005,-48.000000,8.000000,28.750000
16011006,-40.000000,8.000000,28.750000
16011007,-32.000000,8.000000,28.750000
16011008,-24.000000,8.000000,28.750000
16011014,24.000000,8.000000,28.750000
16011015,32.000000,8.000000,28.750000
16011016,40.000000,8.000000,28.750000
16011017,48.000000,8.000000,28.750000
16011018,56.000000,8.000000,28.750000
16011019,64.000000,8.000000,28.750000
16011020,72.000000,8.000000,28.750000
16012002,-72.000000,16.000000,28.750000
16012003,-64.000000,16.000000,28.750000
16012004,-56.000000,16.000000,28.750000
16012005,-48.000000,16.000000,28.750000
16012006,-40.000000,16.000000,28.750000
16012007,-32.000000,16.000000,28.750000
16012008,-24.000000,16.000000,28.750000
16012009,-16.000000,16.000000,28.750000
16012013,16.000000,16.000000,28.750000
16012014,24.000000,16.000000,28.750000
16012015,32.000000,16.000000,28.750000
16012016,40.000000,16.000000,28.750000
16012017,48.000000,16.000000,28.750000
16012018,56.000000,16.000000,28.750000
16012019,64.000000,16.000000,28.750000
16012020,72.000000,16.000000,28.750000
16013003,-64.000000,24.000000,28.750000
16013004,-56.000000,24.000000,28.750000
16013005,-48.000000,24.000000,28.750000
16013006,-40.000000,24.000000,28.750000
16013007,-32.000000,24.000000,28.750000
16013008,-24.000000,24.000000,28.750000
16013009,-16.000000,24.000000,28.750000
16013010,-8.000000,24.000000,28.750000
16013011,0.000000,24.000000,28.750000
16013012,8.000000,24.000000,28.750000
16013013,16.000000,24.000000,28.750000
16013014,24.000000,24.000000,28.750000
16013015,32.000000,24.000000,28.750000
16013016,40.000000,24.000000,28.750000
16013017,48.000000,24.000000,28.750000
16013018,56.000000,24.000000,28.750000
16013019,64.000000,24.000000,28.750000
16014003,-64.000000,32.000000,28.750000
16014004,-56.000000,32.000000,28.750000
16014005,-48.000000,32.000000,28.750000
16014006,-40.000000,32.000000,28.750000
16014007,-32.000000,32.000000,28.750000
16014008,-24.000000,32.000000,28.750000
16014009,-16.000000,32.000000,28.750000
16014010,-8.000000,32.000000,28.750000
16014011,0.000000,32.000000,28.750000
16014012,8.000000,32.000000,28.750000
16014013,16.000000,32.000000,28.750000
16014014,24.000000,32.000000,28.750000
16014015,32.000000,32.000000,28.750000
16014016,40.000000,32.000000,28.750000
16014017,48.000000,32.000000,28.750000
16014018,56.000000,32.000000,28.750000
16014019,64.000000,32.000000,28.750000
16015004,-56.000000,40.000000,28.750000
16015005,-48.000000,40.000000,28.750000
16015006,-40.000000,40.000000,28.750000
16015007,-32.000000,40.000000,28.750000
16015008,-24.000000,40.000000,28.750000
16015009,-16.000000,40.000000,28.750000
16015010,-8.000000,40.000000,28.750000
16015011,0.000000,40.000000,28.750000
16015012,8.000000,40.000000,28.750000
16015013,16.000000,40.000000,28.750000
16015014,24.000000,40.000000,28.750000
16015015,32.000000,40.000000,28.750000
16015016,40.000000,40.000000,28.750000
16015017,48.000000,40.000000,28.750000
16015018,56.000000,40.000000,28.750000
16016004,-56.000000,48.000000,28.750000
16016005,-48.000000,48.000000,28.750000
16016006,-40.000000,48.000000,28.750000
16016007,-32.000000,48.000000,28.750000
16016008,-24.000000,48.000000,28.750000
16016009,-16.000000,48.000000,28.750000
16016010,-8.000000,48.000000,28.750000
16016011,0.000000,48.000000,28.750000
16016012,8.000000,48.000000,28.750000
16016013,16.000000,48.000000,28.750000
16016014,24.000000,48.000000,28.750000
16016015,32.000000,48.000000,28.750000
16016016,40.000000,48.000000,28.750000
16016017,48.000000,48.000000,28.750000
16016018,56.000000,48.000000,28.750000
16017005,-48.000000,56.000000,28.750000
16017006,-40.000000,56.000000,28.750000
16017007,-32.000000,56.000000,28.750000
16017008,-24.000000,56.000000,28.750000
16017009,-16.000000,56.000000,28.750000
16017010,-8.000000,56.000000,28.750000
16017011,0.000000,56.000000,28.750000
16017012,8.000000,56.000000,28.750000
16017013,16.000000,56.000000,28.750000
16017014,24.000000,56.000000,28.750000
16017015,32.000000,56.000000,28.750000
16017016,40.000000,56.000000,28.750000
16017017,48.000000,56.000000,28.750000
16018007,-32.000000,64.000000,28.750000
16018008,-24.000000,64.000000,28.750000
16018009,-16.000000,64.000000,28.750000
16018010,-8.000000,64.000000,28.750000
16018011,0.000000,64.000000,28.750000
16018012,8.000000,64.000000,28.750000
16018013,16.000000,64.000000,28.750000
16018014,24.000000,64.000000,28.750000
16018015,32.000000,64.000000,28.750000
16019009,-16.000000,72.000000,28.750000
16019010,-8.000000,72.000000,28.750000
16019011,0.000000,72.000000,28.750000
16019012,8.000000,72.000000,28.750000
16019013,16.000000,72.000000,28.750000
17001009,-16.000000,-72.000000,30.750000
17001010,-8.000000,-72.000000,30.750000
17001011,0.000000,-72.000000,30.750000
17001012,8.000000,-72.000000,30.750000
17001013,16.000000,-72.000000,30.750000
17002007,-32.000000,-64.000000,30.750000
17002008,-24.000000,-64.000000,30.750000
17002009,-16.000000,-64.000000,30.750000
17002010,-8.000000,-64.000000,30.750000
17002011,0.000000,-64.000000,30.750000
17002012,8.000000,-64.000000,30.750000
17002013,16.000000,-64.000000,30.750000
17002014,24.000000,-64.000000,30.750000
17002015,32.000000,-64.000000,30.750000
17003005,-48.000000,-56.000000,30.750000
17003006,-40.000000,-56.000000,30.750000
17003007,-32.000000,-56.000000,30.750000
17003008,-24.000000,-56.000000,30.750000
17003009,-16.000000,-56.000000,30.750000
17003010,-8.000000,-56.000000,30.750000
17003011,0.000000,-56.000000,30.750000
17003012,8.000000,-56.000000,30.750000
17003013,16.000000,-56.000000,30.750000
17003014,24.000000,-56.000000,30.750000
17003015,32.000000,-56.000000,30.750000
17003016,40.000000,-56.000000,30.750000
17003017,48.000000,-56.000000,30.750000
17004004,-56.000000,-48.000000,30.750000
17004005,-48.000000,-48.000000,30.750000
17004006,-40.000000,-48.000000,30.750000
17004007,-32.000000,-48.000000,30.750000
17004008,-24.000000,-48.000000,30.750000
17004009,-16.000000,-48.000000,30.750000
17004010,-8.000000,-48.000000,30.750000
17004011,0.000000,-48.000000,30.750000
17004012,8.000000,-48.000000,30.750000
17004013,16.000000,-48.000000,30.750000
17004014,24.000000,-48.000000,30.750000
17004015,32.000000,-48.000000,30.750000
17004016,40.000000,-48.000000,30.750000
17004017,48.000000,-48.000000,30.750000
17004018,56.000000,-48.000000,30.750000
17005004,-56.000000,-40.000000,30.750000
17005005,-48.000000,-40.000000,30.750000
17005006,-40.000000,-40.000000,30.750000
17005007,-32.000000,-40.000000,30.750000
17005008,-24.000000,-40.000000,30.750000
17005009,-16.000000,-40.000000,30.750000
17005010,-8.000000,-40.000000,30.750000
17005011,0.000000,-40.000000,30.750000
17005012,8.000000,-40.000000,30.750000
17005013,16.000000,-40.000000,30.750000
17005014,24.000000,-40.000000,30.750000
17005015,32.000000,-40.000000,30.750000
17005016,40.000000,-40.000000,30.750000
17005017,48.000000,-40.000000,30.750000
17005018,56.000000,-40.000000,30.750000
17006003,-64.000000,-32.000000,30.750000
17006004,-56.000000,-32.000000,30.750000
17006005,-48.000000,-32.000000,30.750000
17006006,-40.000000,-32.000000,30.750000
17006007,-32.000000,-32.000000,30.750000
17006008,-24.000000,-32.000000,30.750000
17006009,-16.000000,-32.000000,30.750000
17006010,-8.000000,-32.000000,30.750000
17006011,0.000000,-32.000000,30.750000
17006012,8.000000,-32.000000,30.750000
17006013,16.000000,-32.000000,30.750000
17006014,24.000000,-32.000000,30.750000
17006015,32.000000,-32.000000,30.750000
17006016,40.000000,-32.000000,30.750000
17006017,48.000000,-32.000000,30.750000
17006018,56.000000,-32.000000,30.750000
17006019,64.000000,-32.000000,30.750000
17007003,-64.000000,-24.000000,30.750000
17007004,-56.000000,-24.000000,30.750000
17007005,-48.000000,-24.000000,30.750000
17007006,-40.000000,-24.000000,30.750000
17007007,-32.000000,-24.000000,30.750000
17007008,-24.000000,-24.000000,30.750000
17007009,-16.000000,-24.000000,30.750000
17007010,-8.000000,-24.000000,30.750000
17007011,0.000000,-24.000000,30.750000
17007012,8.000000,-24.000000,30.750000
17007013,16.000000,-24.000000,30.750000
17007014,24.000000,-24.000000,30.750000
17007015,32.000000,-24.000000,30.750000
17007016,40.000000,-24.000000,30.750000
17007017,48.000000,-24.000000,30.750000
17007018,56.000000,-24.000000,30.750000
17007019,64.000000,-24.000000,30.750000
17008002,-72.000000,-16.000000,30.750000
17008003,-64.000000,-16.000000,30.750000
17008004,-56.000000,-16.000000,30.750000
17008005,-48.000000,-16.000000,30.750000
17008006,-40.000000,-16.000000,30.750000
17008007,-32.000000,-16.000000,30.750000
17008008,-24.000000,-16.000000,30.750000
17008009,-16.000000,-16.000000,30.750000
17008013,16.000000,-16.000000,30.750000
17008014,24.000000,-16.000000,30.750000
17008015,32.000000,-16.000000,30.750000
17008016,40.000000,-16.000000,30.750000
17008017,48.000000,-16.000000,30.750000
17008018,56.000000,-16.000000,30.750000
17008019,64.000000,-16.000000,30.750000
17008020,72.000000,-16.000000,30.750000
17009002,-72.000000,-8.000000,30.750000
17009003,-64.000000,-8.000000,30.750000
17009004,-56.000000,-8.000000,30.750000
17009005,-48.000000,-8.000000,30.750000
17009006,-40.000000,-8.000000,30.750000
17009007,-32.000000,-8.000000,30.750000
17009008,-24.000000,-8.000000,30.750000
17009014,24.000000,-8.000000,30.750000
17009015,32.000000,-8.000000,30.750000
17009016,40.000000,-8.000000,30.750000
17009017,48.000000,-8.000000,30.750000
17009018,56.000000,-8.000000,30.750000
17009019,64.000000,-8.000000,30.750000
17009020,72.000000,-8.000000,30.750000
17010002,-72.000000,0.000000,30.750000
17010003,-64.000000,0.000000,30.750000
17010004,-56.000000,0.000000,30.750000
17010005,-48.000000,0.000000,30.750000
17010006,-40.000000,0.000000,30.750000
17010007,-32.000000,0.000000,30.750000
17010008,-24.000000,0.000000,30.750000
17010014,24.000000,0.000000,30.750000
17010015,32.000000,0.000000,30.750000
17010016,40.000000,0.000000,30.750000
17010017,48.000000,0.000000,30.750000
17010018,56.000000,0.000000,30.750000
17010019,64.000000,0.000000,30.750000
17010020,72.000000,0.000000,30.750000
17011002,-72.000000,8.000000,30.750000
17011003,-64.000000,8.000000,30.750000
17011004,-56.000000,8.000000,30.750000
17011005,-48.000000,8.000000,30.750000
17011006,-40.000000,8.000000,30.750000
17011007,-32.000000,8.000000,30.750000
17011008,-24.000000,8.000000,30.750000
17011014,24.000000,8.000000,30.750000
17011015,32.000000,8.000000,30.750000
17011016,40.000000,8.000000,30.750000
17011017,48.000000,8.000000,30.750000
17011018,56.000000,8.000000,30.750000
17011019,64.000000,8.000000,30.750000
17011020,72.000000,8.000000,30.750000
17012002,-72.000000,16.000000,30.750000
17012003,-64.000000,16.000000,30.750000
17012004,-56.000000,16.000000,30.750000
17012005,-48.000000,16.000000,30.750000
17012006,-40.000000,16.000000,30.750000
17012007,-32.000000,16.000000,30.750000
17012008,-24.000000,16.000000,30.750000
17012009,-16.000000,16.000000,30.750000
17012013,16.000000,16.000000,30.750000
17012014,24.000000,16.000000,30.750000
17012015,32.000000,16.000000,30.750000
17012016,40.000000,16.000000,30.750000
17012017,48.000000,16.000000,30.750000
17012018,56.000000,16.000000,30.750000
17012019,64.000000,16.000000,30.750000
17012020,72.000000,16.000000,30.750000
17013003,-64.000000,24.000000,30.750000
17013004,-56.000000,24.000000,30.750000
17013005,-48.000000,24.000000,30.750000
17013006,-40.000000,24.000000,30.750000
17013007,-32.000000,24.000000,30.750000
17013008,-24.000000,24.000000,30.750000
17013009,-16.000000,24.000000,30.750000
17013010,-8.000000,24.000000,30.750000
17013011,0.000000,24.000000,30.750000
17013012,8.000000,24.000000,30.750000
17013013,16.000000,24.000000,30.750000
17013014,24.000000,24.000000,30.750000
17013015,32.000000,24.000000,30.750000
17013016,40.000000,24.000000,30.750000
17013017,48.000000,24.000000,30.750000
17013018,56.000000,24.000000,30.750000
17013019,64.000000,24.000000,30.750000
17014003,-64.000000,32.000000,30.750000
17014004,-56.000000,32.000000,30.750000
17014005,-48.000000,32.000000,30.750000
17014006,-40.000000,32.000000,30.750000
17014007,-32.000000,32.000000,30.750000
17014008,-24.000000,32.000000,30.750000
17014009,-16.000000,32.000000,30.750000
17014010,-8.000000,32.000000,30.750000
17014011,0.000000,32.000000,30.750000
17014012,8.000000,32.000000,30.750000
17014013,16.000000,32.000000,30.750000
17014014,24.000000,32.000000,30.750000
17014015,32.000000,32.000000,30.750000
17014016,40.000000,32.000000,30.750000
17014017,48.000000,32.000000,30.750000
17014018,56.000000,32.000000,30.750000
17014019,64.000000,32.000000,30.750000
17015004,-56.000000,40.000000,30.750000
17015005,-48.000000,40.000000,30.750000
17015006,-40.000000,40.000000,30.750000
17015007,-32.000000,40.000000,30.750000
17015008,-24.000000,40.000000,30.750000
17015009,-16.000000,40.000000,30.750000
17015010,-8.000000,40.000000,30.750000
17015011,0.000000,40.000000,30.750000
17015012,8.000000,40.000000,30.750000
17015013,16.000000,40.000000,30.750000
17015014,24.000000,40.000000,30.750000
17015015,32.000000,40.000000,30.750000
17015016,40.000000,40.000000,30.750000
17015017,48.000000,40.000000,30.750000
17015018,56.000000,40.000000,30.750000
17016004,-56.000000,48.000000,30.750000
17016005,-48.000000,48.000000,30.750000
17016006,-40.000000,48.000000,30.750000
17016007,-32.000000,48.000000,30.750000
17016008,-24.000000,48.000000,30.750000
17016009,-16.000000,48.000000,30.750000
17016010,-8.000000,48.000000,30.750000
17016011,0.000000,48.000000,30.750000
17016012,8.000000,48.000000,30.750000
17016013,16.000000,48.000000,30.750000
17016014,24.000000,48.000000,30.750000
17016015,32.000000,48.000000,30.750000
17016016,40.000000,48.000000,30.750000
17016017,48.000000,48.000000,30.750000
17016018,56.000000,48.000000,30.750000
17017005,-48.000000,56.000000,30.750000
17017006,-40.000000,56.000000,30.750000
17017007,-32.000000,56.000000,30.750000
17017008,-24.000000,56.000000,30.750000
17017009,-16.000000,56.000000,30.750000
17017010,-8.000000,56.000000,30.750000
17017011,0.000000,56.000000,30.750000
17017012,8.000000,56.000000,30.750000
17017013,16.000000,56.000000,30.750000
17017014,24.000000,56.000000,30.750000
17017015,32.000000,56.000000,30.750000
17017016,40.000000,56.000000,30.750000
17017017,48.000000,56.000000,30.750000
17018007,-32.000000,64.000000,30.750000
17018008,-24.000000,64.000000,30.750000
17018009,-16.000000,64.000000,30.750000
17018010,-8.000000,64.000000,30.750000
17018011,0.000000,64.000000,30.750000
17018012,8.000000,64.000000,30.750000
17018013,16.000000,64.000000,30.750000
17018014,24.000000,64.000000,30.750000
17018015,32.000000,64.000000,30.750000
17019009,-16.000000,72.000000,30.750000
17019010,-8.000000,72.000000,30.750000
17019011,0.000000,72.000000,30.750000
17019012,8.000000,72.000000,30.750000
17019013,16.000000,72.000000,30.750000
99000000,0.0,0.0,30.75
99000100,70.000000,70.000000,10.75
99000101,70.000000,-70.000000,10.75
99000102,-70.000000,70.000000,10.75
99000103,-70.000000,-70.000000,10.75
99000200,57.742471,23.917715,22.75
99000201,23.917715,57.742471,22.75
99000202,-23.917715,57.742471,22.75
99000203,-57.742471,23.917715,22.75
99000204,-57.742471,-23.917715,22.75
99000205,-23.917715,-57.742471,22.75
99000206,23.917715,-57.742471,22.75
99000207,57.742471,-23.917715,22.75
*ELEMENT,TYPE=C3D8I,ELSET=EALL
1,1000001,1000002,1001002,1001001,2000001,2000002,2001002,2001001
2,1000002,1000003,1001003,1001002,2000002,2000003,2001003,2001002
3,1000003,1000004,1001004,1001003,2000003,2000004,2001004,2001003
4,1000004,1000005,1001005,1001004,2000004,2000005,2001005,2001004
5,1000005,1000006,1001006,1001005,2000005,2000006,2001006,2001005
6,1000006,1000007,1001007,1001006,2000006,2000007,2001007,2001006
7,1000007,1000008,1001008,1001007,2000007,2000008,2001008,2001007
8,1000008,1000009,1001009,1001008,2000008,2000009,2001009,2001008
9,1000009,1000010,1001010,1001009,2000009,2000010,2001010,2001009
10,1000010,1000011,1001011,1001010,2000010,2000011,2001011,2001010
11,1000011,1000012,1001012,1001011,2000011,2000012,2001012,2001011
12,1000012,1000013,1001013,1001012,2000012,2000013,2001013,2001012
13,1000013,1000014,1001014,1001013,2000013,2000014,2001014,2001013
14,1000014,1000015,1001015,1001014,2000014,2000015,2001015,2001014
15,1000015,1000016,1001016,1001015,2000015,2000016,2001016,2001015
16,1000016,1000017,1001017,1001016,2000016,2000017,2001017,2001016
17,1000017,1000018,1001018,1001017,2000017,2000018,2001018,2001017
18,1000018,1000019,1001019,1001018,2000018,2000019,2001019,2001018
19,1000019,1000020,1001020,1001019,2000019,2000020,2001020,2001019
20,1000020,1000021,1001021,1001020,2000020,2000021,2001021,2001020
21,1001001,1001002,1002002,1002001,2001001,2001002,2002002,2002001
22,1001002,1001003,1002003,1002002,2001002,2001003,2002003,2002002
23,1001003,1001004,1002004,1002003,2001003,2001004,2002004,2002003
24,1001004,1001005,1002005,1002004,2001004,2001005,2002005,2002004
25,1001005,1001006,1002006,1002005,2001005,2001006,2002006,2002005
26,1001006,1001007,1002007,1002006,2001006,2001007,2002007,2002006
27,1001007,1001008,1002008,1002007,2001007,2001008,2002008,2002007
28,1001008,1001009,1002009,1002008,2001008,2001009,2002009,2002008
29,1001009,1001010,1002010,1002009,2001009,2001010,2002010,2002009
30,1001010,1001011,1002011,1002010,2001010,2001011,2002011,2002010
31,1001011,1001012,1002012,1002011,2001011,2001012,2002012,2002011
32,1001012,1001013,1002013,1002012,2001012,2001013,2002013,2002012
33,1001013,1001014,1002014,1002013,2001013,2001014,2002014,2002013
34,1001014,1001015,1002015,1002014,2001014,2001015,2002015,2002014
35,1001015,1001016,1002016,1002015,2001015,2001016,2002016,2002015
36,1001016,1001017,1002017,1002016,2001016,2001017,2002017,2002016
37,1001017,1001018,1002018,1002017,2001017,2001018,2002018,2002017
38,1001018,1001019,1002019,1002018,2001018,2001019,2002019,2002018
39,1001019,1001020,1002020,1002019,2001019,2001020,2002020,2002019
40,1001020,1001021,1002021,1002020,2001020,2001021,2002021,2002020
41,1002001,1002002,1003002,1003001,2002001,2002002,2003002,2003001
42,1002002,1002003,1003003,1003002,2002002,2002003,2003003,2003002
43,1002003,1002004,1003004,1003003,2002003,2002004,2003004,2003003
44,1002004,1002005,1003005,1003004,2002004,2002005,2003005,2003004
45,1002005,1002006,1003006,1003005,2002005,2002006,2003006,2003005
46,1002006,1002007,1003007,1003006,2002006,2002007,2003007,2003006
47,1002007,1002008,1003008,1003007,2002007,2002008,2003008,2003007
48,1002008,1002009,1003009,1003008,2002008,2002009,2003009,2003008
49,1002009,1002010,1003010,1003009,2002009,2002010,2003010,2003009
50,1002010,1002011,1003011,1003010,2002010,2002011,2003011,2003010
51,1002011,1002012,1003012,1003011,2002011,2002012,2003012,2003011
52,1002012,1002013,1003013,1003012,2002012,2002013,2003013,2003012
53,1002013,1002014,1003014,1003013,2002013,2002014,2003014,2003013
54,1002014,1002015,1003015,1003014,2002014,2002015,2003015,2003014
55,1002015,1002016,1003016,1003015,2002015,2002016,2003016,2003015
56,1002016,1002017,1003017,1003016,2002016,2002017,2003017,2003016
57,1002017,1002018,1003018,1003017,2002017,2002018,2003018,2003017
58,1002018,1002019,1003019,1003018,2002018,2002019,2003019,2003018
59,1002019,1002020,1003020,1003019,2002019,2002020,2003020,2003019
60,1002020,1002021,1003021,1003020,2002020,2002021,2003021,2003020
61,1003001,1003002,1004002,1004001,2003001,2003002,2004002,2004001
62,1003002,1003003,1004003,1004002,2003002,2003003,2004003,2004002
63,1003003,1003004,1004004,1004003,2003003,2003004,2004004,2004003
64,1003004,1003005,1004005,1004004,2003004,2003005,2004005,2004004
65,1003005,1003006,1004006,1004005,2003005,2003006,2004006,2004005
66,1003006,1003007,1004007,1004006,2003006,2003007,2004007,2004006
67,1003007,1003008,1004008,1004007,2003007,2003008,2004008,2004007
68,1003008,1003009,1004009,1004008,2003008,2003009,2004009,2004008
69,1003009,1003010,1004010,1004009,2003009,2003010,2004010,2004009
70,1003010,1003011,1004011,1004010,2003010,2003011,2004011,2004010
71,1003011,1003012,1004012,1004011,2003011,2003012,2004012,2004011
72,1003012,1003013,1004013,1004012,2003012,2003013,2004013,2004012
73,1003013,1003014,1004014,1004013,2003013,2003014,2004014,2004013
74,1003014,1003015,1004015,1004014,2003014,2003015,2004015,2004014
75,1003015,1003016,1004016,1004015,2003015,2003016,2004016,2004015
76,1003016,1003017,1004017,1004016,2003016,2003017,2004017,2004016
77,1003017,1003018,1004018,1004017,2003017,2003018,2004018,2004017
78,1003018,1003019,1004019,1004018,2003018,2003019,2004019,2004018
79,1003019,1003020,1004020,1004019,2003019,2003020,2004020,2004019
80,1003020,1003021,1004021,1004020,2003020,2003021,2004021,2004020
81,1004001,1004002,1005002,1005001,2004001,2004002,2005002,2005001
82,1004002,1004003,1005003,1005002,2004002,2004003,2005003,2005002
83,1004003,1004004,1005004,1005003,2004003,2004004,2005004,2005003
84,1004004,1004005,1005005,1005004,2004004,2004005,2005005,2005004
85,1004005,1004006,1005006,1005005,2004005,2004006,2005006,2005005
86,1004006,1004007,1005007,1005006,2004006,2004007,2005007,2005006
87,1004007,1004008,1005008,1005007,2004007,2004008,2005008,2005007
88,1004008,1004009,1005009,1005008,2004008,2004009,2005009,2005008
89,1004009,1004010,1005010,1005009,2004009,2004010,2005010,2005009
90,1004010,1004011,1005011,1005010,2004010,2004011,2005011,2005010
91,1004011,1004012,1005012,1005011,2004011,2004012,2005012,2005011
92,1004012,1004013,1005013,1005012,2004012,2004013,2005013,2005012
93,1004013,1004014,1005014,1005013,2004013,2004014,2005014,2005013
94,1004014,1004015,1005015,1005014,2004014,2004015,2005015,2005014
95,1004015,1004016,1005016,1005015,2004015,2004016,2005016,2005015
96,1004016,1004017,1005017,1005016,2004016,2004017,2005017,2005016
97,1004017,1004018,1005018,1005017,2004017,2004018,2005018,2005017
98,1004018,1004019,1005019,1005018,2004018,2004019,2005019,2005018
99,1004019,1004020,1005020,1005019,2004019,2004020,2005020,2005019
100,1004020,1004021,1005021,1005020,2004020,2004021,2005021,2005020
101,1005001,1005002,1006002,1006001,2005001,2005002,2006002,2006001
102,1005002,1005003,1006003,1006002,2005002,2005003,2006003,2006002
103,1005003,1005004,1006004,1006003,2005003,2005004,2006004,2006003
104,1005004,1005005,1006005,1006004,2005004,2005005,2006005,2006004
105,1005005,1005006,1006006,1006005,2005005,2005006,2006006,2006005
106,1005006,1005007,1006007,1006006,2005006,2005007,2006007,2006006
107,1005007,1005008,1006008,1006007,2005007,2005008,2006008,2006007
108,1005008,1005009,1006009,1006008,2005008,2005009,2006009,2006008
109,1005009,1005010,1006010,1006009,2005009,2005010,2006010,2006009
110,1005010,1005011,1006011,1006010,2005010,2005011,2006011,2006010
111,1005011,1005012,1006012,1006011,2005011,2005012,2006012,2006011
112,1005012,1005013,1006013,1006012,2005012,2005013,2006013,2006012
113,1005013,1005014,1006014,1006013,2005013,2005014,2006014,2006013
114,1005014,1005015,1006015,1006014,2005014,2005015,2006015,2006014
115,1005015,1005016,1006016,1006015,2005015,2005016,2006016,2006015
116,1005016,1005017,1006017,1006016,2005016,2005017,2006017,2006016
117,1005017,1005018,1006018,1006017,2005017,2005018,2006018,2006017
118,1005018,1005019,1006019,1006018,2005018,2005019,2006019,2006018
119,1005019,1005020,1006020,1006019,2005019,2005020,2006020,2006019
120,1005020,1005021,1006021,1006020,2005020,2005021,2006021,2006020
121,1006001,1006002,1007002,1007001,2006001,2006002,2007002,2007001
122,1006002,1006003,1007003,1007002,2006002,2006003,2007003,2007002
123,1006003,1006004,1007004,1007003,2006003,2006004,2007004,2007003
124,1006004,1006005,1007005,1007004,2006004,2006005,2007005,2007004
125,1006005,1006006,1007006,1007005,2006005,2006006,2007006,2007005
126,1006006,1006007,1007007,1007006,2006006,2006007,2007007,2007006
127,1006007,1006008,1007008,1007007,2006007,2006008,2007008,2007007
128,1006008,1006009,1007009,1007008,2006008,2006009,2007009,2007008
129,1006009,1006010,1007010,1007009,2006009,2006010,2007010,2007009
130,1006010,1006011,1007011,1007010,2006010,2006011,2007011,2007010
131,1006011,1006012,1007012,1007011,2006011,2006012,2007012,2007011
132,1006012,1006013,1007013,1007012,2006012,2006013,2007013,2007012
133,1006013,1006014,1007014,1007013,2006013,2006014,2007014,2007013
134,1006014,1006015,1007015,1007014,2006014,2006015,2007015,2007014
135,1006015,1006016,1007016,1007015,2006015,2006016,2007016,2007015
136,1006016,1006017,1007017,1007016,2006016,2006017,2007017,2007016
137,1006017,1006018,1007018,1007017,2006017,2006018,2007018,2007017
138,1006018,1006019,1007019,1007018,2006018,2006019,2007019,2007018
139,1006019,1006020,1007020,1007019,2006019,2006020,2007020,2007019
140,1006020,1006021,1007021,1007020,2006020,2006021,2007021,2007020
141,1007001,1007002,1008002,1008001,2007001,2007002,2008002,2008001
142,1007002,1007003,1008003,1008002,2007002,2007003,2008003,2008002
143,1007003,1007004,1008004,1008003,2007003,2007004,2008004,2008003
144,1007004,1007005,1008005,1008004,2007004,2007005,2008005,2008004
145,1007005,1007006,1008006,1008005,2007005,2007006,2008006,2008005
146,1007006,1007007,1008007,1008006,2007006,2007007,2008007,2008006
147,1007007,1007008,1008008,1008007,2007007,2007008,2008008,2008007
148,1007008,1007009,1008009,1008008,2007008,2007009,2008009,2008008
149,1007013,1007014,1008014,1008013,2007013,2007014,2008014,2008013
150,1007014,1007015,1008015,1008014,2007014,2007015,2008015,2008014
151,1007015,1007016,1008016,1008015,2007015,2007016,2008016,2008015
152,1007016,1007017,1008017,1008016,2007016,2007017,2008017,2008016
153,1007017,1007018,1008018,1008017,2007017,2007018,2008018,2008017
154,1007018,1007019,1008019,1008018,2007018,2007019,2008019,2008018
155,1007019,1007020,1008020,1008019,2007019,2007020,2008020,2008019
156,1007020,1007021,1008021,1008020,2007020,2007021,2008021,2008020
157,1008001,1008002,1009002,1009001,2008001,2008002,2009002,2009001
158,1008002,1008003,1009003,1009002,2008002,2008003,2009003,2009002
159,1008003,1008004,1009004,1009003,2008003,2008004,2009004,2009003
160,1008004,1008005,1009005,1009004,2008004,2008005,2009005,2009004
161,1008005,1008006,1009006,1009005,2008005,2008006,2009006,2009005
162,1008006,1008007,1009007,1009006,2008006,2008007,2009007,2009006
163,1008007,1008008,1009008,1009007,2008007,2008008,2009008,2009007
164,1008014,1008015,1009015,1009014,2008014,2008015,2009015,2009014
165,1008015,1008016,1009016,1009015,2008015,2008016,2009016,2009015
166,1008016,1008017,1009017,1009016,2008016,2008017,2009017,2009016
167,1008017,1008018,1009018,1009017,2008017,2008018,2009018,2009017
168,1008018,1008019,1009019,1009018,2008018,2008019,2009019,2009018
169,1008019,1008020,1009020,1009019,2008019,2008020,2009020,2009019
170,1008020,1008021,1009021,1009020,2008020,2008021,2009021,2009020
171,1009001,1009002,1010002,1010001,2009001,2009002,2010002,2010001
172,1009002,1009003,1010003,1010002,2009002,2009003,2010003,2010002
173,1009003,1009004,1010004,1010003,2009003,2009004,2010004,2010003
174,1009004,1009005,1010005,1010004,2009004,2009005,2010005,2010004
175,1009005,1009006,1010006,1010005,2009005,2009006,2010006,2010005
176,1009006,1009007,1010007,1010006,2009006,2009007,2010007,2010006
177,1009007,1009008,1010008,1010007,2009007,2009008,2010008,2010007
178,1009014,1009015,1010015,1010014,2009014,2009015,2010015,2010014
179,1009015,1009016,1010016,1010015,2009015,2009016,2010016,2010015
180,1009016,1009017,1010017,1010016,2009016,2009017,2010017,2010016
181,1009017,1009018,1010018,1010017,2009017,2009018,2010018,2010017
182,1009018,1009019,1010019,1010018,2009018,2009019,2010019,2010018
183,1009019,1009020,1010020,1010019,2009019,2009020,2010020,2010019
184,1009020,1009021,1010021,1010020,2009020,2009021,2010021,2010020
185,1010001,1010002,1011002,1011001,2010001,2010002,2011002,2011001
186,1010002,1010003,1011003,1011002,2010002,2010003,2011003,2011002
187,1010003,1010004,1011004,1011003,2010003,2010004,2011004,2011003
188,1010004,1010005,1011005,1011004,2010004,2010005,2011005,2011004
189,1010005,1010006,1011006,1011005,2010005,2010006,2011006,2011005
190,1010006,1010007,1011007,1011006,2010006,2010007,2011007,2011006
191,1010007,1010008,1011008,1011007,2010007,2010008,2011008,2011007
192,1010014,1010015,1011015,1011014,2010014,2010015,2011015,2011014
193,1010015,1010016,1011016,1011015,2010015,2010016,2011016,2011015
194,1010016,1010017,1011017,1011016,2010016,2010017,2011017,2011016
195,1010017,1010018,1011018,1011017,2010017,2010018,2011018,2011017
196,1010018,1010019,1011019,1011018,2010018,2010019,2011019,2011018
197,1010019,1010020,1011020,1011019,2010019,2010020,2011020,2011019
198,1010020,1010021,1011021,1011020,2010020,2010021,2011021,2011020
199,1011001,1011002,1012002,1012001,2011001,2011002,2012002,2012001
200,1011002,1011003,1012003,1012002,2011002,2011003,2012003,2012002
201,1011003,1011004,1012004,1012003,2011003,2011004,2012004,2012003
202,1011004,1011005,1012005,1012004,2011004,2011005,2012005,2012004
203,1011005,1011006,1012006,1012005,2011005,2011006,2012006,2012005
204,1011006,1011007,1012007,1012006,2011006,2011007,2012007,2012006
205,1011007,1011008,1012008,1012007,2011007,2011008,2012008,2012007
206,1011014,1011015,1012015,1012014,2011014,2011015,2012015,2012014
207,1011015,1011016,1012016,1012015,2011015,2011016,2012016,2012015
208,1011016,1011017,1012017,1012016,2011016,2011017,2012017,2012016
209,1011017,1011018,1012018,1012017,2011017,2011018,2012018,2012017
210,1011018,1011019,1012019,1012018,2011018,2011019,2012019,2012018
211,1011019,1011020,1012020,1012019,2011019,2011020,2012020,2012019
212,1011020,1011021,1012021,1012020,2011020,2011021,2012021,2012020
213,1012001,1012002,1013002,1013001,2012001,2012002,2013002,2013001
214,1012002,1012003,1013003,1013002,2012002,2012003,2013003,2013002
215,1012003,1012004,1013004,1013003,2012003,2012004,2013004,2013003
216,1012004,1012005,1013005,1013004,2012004,2012005,2013005,2013004
217,1012005,1012006,1013006,1013005,2012005,2012006,2013006,2013005
218,1012006,1012007,1013007,1013006,2012006,2012007,2013007,2013006
219,1012007,1012008,1013008,1013007,2012007,2012008,2013008,2013007
220,1012008,1012009,1013009,1013008,2012008,2012009,2013009,2013008
221,1012013,1012014,1013014,1013013,2012013,2012014,2013014,2013013
222,1012014,1012015,1013015,1013014,2012014,2012015,2013015,2013014
223,1012015,1012016,1013016,1013015,2012015,2012016,2013016,2013015
224,1012016,1012017,1013017,1013016,2012016,2012017,2013017,2013016
225,1012017,1012018,1013018,1013017,2012017,2012018,2013018,2013017
226,1012018,1012019,1013019,1013018,2012018,2012019,2013019,2013018
227,1012019,1012020,1013020,1013019,2012019,2012020,2013020,2013019
228,1012020,1012021,1013021,1013020,2012020,2012021,2013021,2013020
229,1013001,1013002,1014002,1014001,2013001,2013002,2014002,2014001
230,1013002,1013003,1014003,1014002,2013002,2013003,2014003,2014002
231,1013003,1013004,1014004,1014003,2013003,2013004,2014004,2014003
232,1013004,1013005,1014005,1014004,2013004,2013005,2014005,2014004
233,1013005,1013006,1014006,1014005,2013005,2013006,2014006,2014005
234,1013006,1013007,1014007,1014006,2013006,2013007,2014007,2014006
235,1013007,1013008,1014008,1014007,2013007,2013008,2014008,2014007
236,1013008,1013009,1014009,1014008,2013008,2013009,2014009,2014008
237,1013009,1013010,1014010,1014009,2013009,2013010,2014010,2014009
238,1013010,1013011,1014011,1014010,2013010,2013011,2014011,2014010
239,1013011,1013012,1014012,1014011,2013011,2013012,2014012,2014011
240,1013012,1013013,1014013,1014012,2013012,2013013,2014013,2014012
241,1013013,1013014,1014014,1014013,2013013,2013014,2014014,2014013
242,1013014,1013015,1014015,1014014,2013014,2013015,2014015,2014014
243,1013015,1013016,1014016,1014015,2013015,2013016,2014016,2014015
244,1013016,1013017,1014017,1014016,2013016,2013017,2014017,2014016
245,1013017,1013018,1014018,1014017,2013017,2013018,2014018,2014017
246,1013018,1013019,1014019,1014018,2013018,2013019,2014019,2014018
247,1013019,1013020,1014020,1014019,2013019,2013020,2014020,2014019
248,1013020,1013021,1014021,1014020,2013020,2013021,2014021,2014020
249,1014001,1014002,1015002,1015001,2014001,2014002,2015002,2015001
250,1014002,1014003,1015003,1015002,2014002,2014003,2015003,2015002
251,1014003,1014004,1015004,1015003,2014003,2014004,2015004,2015003
252,1014004,1014005,1015005,1015004,2014004,2014005,2015005,2015004
253,1014005,1014006,1015006,1015005,2014005,2014006,2015006,2015005
254,1014006,1014007,1015007,1015006,2014006,2014007,2015007,2015006
255,1014007,1014008,1015008,1015007,2014007,2014008,2015008,2015007
256,1014008,1014009,1015009,1015008,2014008,2014009,2015009,2015008
257,1014009,1014010,1015010,1015009,2014009,2014010,2015010,2015009
258,1014010,1014011,1015011,1015010,2014010,2014011,2015011,2015010
259,1014011,1014012,1015012,1015011,2014011,2014012,2015012,2015011
260,1014012,1014013,1015013,1015012,2014012,2014013,2015013,2015012
261,1014013,1014014,1015014,1015013,2014013,2014014,2015014,2015013
262,1014014,1014015,1015015,1015014,2014014,2014015,2015015,2015014
263,1014015,1014016,1015016,1015015,2014015,2014016,2015016,2015015
264,1014016,1014017,1015017,1015016,2014016,2014017,2015017,2015016
265,1014017,1014018,1015018,1015017,2014017,2014018,2015018,2015017
266,1014018,1014019,1015019,1015018,2014018,2014019,2015019,2015018
267,1014019,1014020,1015020,1015019,2014019,2014020,2015020,2015019
268,1014020,1014021,1015021,1015020,2014020,2014021,2015021,2015020
269,1015001,1015002,1016002,1016001,2015001,2015002,2016002,2016001
270,1015002,1015003,1016003,1016002,2015002,2015003,2016003,2016002
271,1015003,1015004,1016004,1016003,2015003,2015004,2016004,2016003
272,1015004,1015005,1016005,1016004,2015004,2015005,2016005,2016004
273,1015005,1015006,1016006,1016005,2015005,2015006,2016006,2016005
274,1015006,1015007,1016007,1016006,2015006,2015007,2016007,2016006
275,1015007,1015008,1016008,1016007,2015007,2015008,2016008,2016007
276,1015008,1015009,1016009,1016008,2015008,2015009,2016009,2016008
277,1015009,1015010,1016010,1016009,2015009,2015010,2016010,2016009
278,1015010,1015011,1016011,1016010,2015010,2015011,2016011,2016010
279,1015011,1015012,1016012,1016011,2015011,2015012,2016012,2016011
280,1015012,1015013,1016013,1016012,2015012,2015013,2016013,2016012
281,1015013,1015014,1016014,1016013,2015013,2015014,2016014,2016013
282,1015014,1015015,1016015,1016014,2015014,2015015,2016015,2016014
283,1015015,1015016,1016016,1016015,2015015,2015016,2016016,2016015
284,1015016,1015017,1016017,1016016,2015016,2015017,2016017,2016016
285,1015017,1015018,1016018,1016017,2015017,2015018,2016018,2016017
286,1015018,1015019,1016019,1016018,2015018,2015019,2016019,2016018
287,1015019,1015020,1016020,1016019,2015019,2015020,2016020,2016019
288,1015020,1015021,1016021,1016020,2015020,2015021,2016021,2016020
289,1016001,1016002,1017002,1017001,2016001,2016002,2017002,2017001
290,1016002,1016003,1017003,1017002,2016002,2016003,2017003,2017002
291,1016003,1016004,1017004,1017003,2016003,2016004,2017004,2017003
292,1016004,1016005,1017005,1017004,2016004,2016005,2017005,2017004
293,1016005,1016006,1017006,1017005,2016005,2016006,2017006,2017005
294,1016006,1016007,1017007,1017006,2016006,2016007,2017007,2017006
295,1016007,1016008,1017008,1017007,2016007,2016008,2017008,2017007
296,1016008,1016009,1017009,1017008,2016008,2016009,2017009,2017008
297,1016009,1016010,1017010,1017009,2016009,2016010,2017010,2017009
298,1016010,1016011,1017011,1017010,2016010,2016011,2017011,2017010
299,1016011,1016012,1017012,1017011,2016011,2016012,2017012,2017011
300,1016012,1016013,1017013,1017012,2016012,2016013,2017013,2017012
301,1016013,1016014,1017014,1017013,2016013,2016014,2017014,2017013
302,1016014,1016015,1017015,1017014,2016014,2016015,2017015,2017014
303,1016015,1016016,1017016,1017015,2016015,2016016,2017016,2017015
304,1016016,1016017,1017017,1017016,2016016,2016017,2017017,2017016
305,1016017,1016018,1017018,1017017,2016017,2016018,2017018,2017017
306,1016018,1016019,1017019,1017018,2016018,2016019,2017019,2017018
307,1016019,1016020,1017020,1017019,2016019,2016020,2017020,2017019
308,1016020,1016021,1017021,1017020,2016020,2016021,2017021,2017020
309,1017001,1017002,1018002,1018001,2017001,2017002,2018002,2018001
310,1017002,1017003,1018003,1018002,2017002,2017003,2018003,2018002
311,1017003,1017004,1018004,1018003,2017003,2017004,2018004,2018003
312,1017004,1017005,1018005,1018004,2017004,2017005,2018005,2018004
313,1017005,1017006,1018006,1018005,2017005,2017006,2018006,2018005
314,1017006,1017007,1018007,1018006,2017006,2017007,2018007,2018006
315,1017007,1017008,1018008,1018007,2017007,2017008,2018008,2018007
316,1017008,1017009,1018009,1018008,2017008,2017009,2018009,2018008
317,1017009,1017010,1018010,1018009,2017009,2017010,2018010,2018009
318,1017010,1017011,1018011,1018010,2017010,2017011,2018011,2018010
319,1017011,1017012,1018012,1018011,2017011,2017012,2018012,2018011
320,1017012,1017013,1018013,1018012,2017012,2017013,2018013,2018012
321,1017013,1017014,1018014,1018013,2017013,2017014,2018014,2018013
322,1017014,1017015,1018015,1018014,2017014,2017015,2018015,2018014
323,1017015,1017016,1018016,1018015,2017015,2017016,2018016,2018015
324,1017016,1017017,1018017,1018016,2017016,2017017,2018017,2018016
325,1017017,1017018,1018018,1018017,2017017,2017018,2018018,2018017
326,1017018,1017019,1018019,1018018,2017018,2017019,2018019,2018018
327,1017019,1017020,1018020,1018019,2017019,2017020,2018020,2018019
328,1017020,1017021,1018021,1018020,2017020,2017021,2018021,2018020
329,1018001,1018002,1019002,1019001,2018001,2018002,2019002,2019001
330,1018002,1018003,1019003,1019002,2018002,2018003,2019003,2019002
331,1018003,1018004,1019004,1019003,2018003,2018004,2019004,2019003
332,1018004,1018005,1019005,1019004,2018004,2018005,2019005,2019004
333,1018005,1018006,1019006,1019005,2018005,2018006,2019006,2019005
334,1018006,1018007,1019007,1019006,2018006,2018007,2019007,2019006
335,1018007,1018008,1019008,1019007,2018007,2018008,2019008,2019007
336,1018008,1018009,1019009,1019008,2018008,2018009,2019009,2019008
337,1018009,1018010,1019010,1019009,2018009,2018010,2019010,2019009
338,1018010,1018011,1019011,1019010,2018010,2018011,2019011,2019010
339,1018011,1018012,1019012,1019011,2018011,2018012,2019012,2019011
340,1018012,1018013,1019013,1019012,2018012,2018013,2019013,2019012
341,1018013,1018014,1019014,1019013,2018013,2018014,2019014,2019013
342,1018014,1018015,1019015,1019014,2018014,2018015,2019015,2019014
343,1018015,1018016,1019016,1019015,2018015,2018016,2019016,2019015
344,1018016,1018017,1019017,1019016,2018016,2018017,2019017,2019016
345,1018017,1018018,1019018,1019017,2018017,2018018,2019018,2019017
346,1018018,1018019,1019019,1019018,2018018,2018019,2019019,2019018
347,1018019,1018020,1019020,1019019,2018019,2018020,2019020,2019019
348,1018020,1018021,1019021,1019020,2018020,2018021,2019021,2019020
349,1019001,1019002,1020002,1020001,2019001,2019002,2020002,2020001
350,1019002,1019003,1020003,1020002,2019002,2019003,2020003,2020002
351,1019003,1019004,1020004,1020003,2019003,2019004,2020004,2020003
352,1019004,1019005,1020005,1020004,2019004,2019005,2020005,2020004
353,1019005,1019006,1020006,1020005,2019005,2019006,2020006,2020005
354,1019006,1019007,1020007,1020006,2019006,2019007,2020007,2020006
355,1019007,1019008,1020008,1020007,2019007,2019008,2020008,2020007
356,1019008,1019009,1020009,1020008,2019008,2019009,2020009,2020008
357,1019009,1019010,1020010,1020009,2019009,2019010,2020010,2020009
358,1019010,1019011,1020011,1020010,2019010,2019011,2020011,2020010
359,1019011,1019012,1020012,1020011,2019011,2019012,2020012,2020011
360,1019012,1019013,1020013,1020012,2019012,2019013,2020013,2020012
361,1019013,1019014,1020014,1020013,2019013,2019014,2020014,2020013
362,1019014,1019015,1020015,1020014,2019014,2019015,2020015,2020014
363,1019015,1019016,1020016,1020015,2019015,2019016,2020016,2020015
364,1019016,1019017,1020017,1020016,2019016,2019017,2020017,2020016
365,1019017,1019018,1020018,1020017,2019017,2019018,2020018,2020017
366,1019018,1019019,1020019,1020018,2019018,2019019,2020019,2020018
367,1019019,1019020,1020020,1020019,2019019,2019020,2020020,2020019
368,1019020,1019021,1020021,1020020,2019020,2019021,2020021,2020020
369,2000001,2000002,2001002,2001001,3000001,3000002,3001002,3001001
370,2000002,2000003,2001003,2001002,3000002,3000003,3001003,3001002
371,2000003,2000004,2001004,2001003,3000003,3000004,3001004,3001003
372,2000004,2000005,2001005,2001004,3000004,3000005,3001005,3001004
373,2000005,2000006,2001006,2001005,3000005,3000006,3001006,3001005
374,2000006,2000007,2001007,2001006,3000006,3000007,3001007,3001006
375,2000007,2000008,2001008,2001007,3000007,3000008,3001008,3001007
376,2000008,2000009,2001009,2001008,3000008,3000009,3001009,3001008
377,2000009,2000010,2001010,2001009,3000009,3000010,3001010,3001009
378,2000010,2000011,2001011,2001010,3000010,3000011,3001011,3001010
379,2000011,2000012,2001012,2001011,3000011,3000012,3001012,3001011
380,2000012,2000013,2001013,2001012,3000012,3000013,3001013,3001012
381,2000013,2000014,2001014,2001013,3000013,3000014,3001014,3001013
382,2000014,2000015,2001015,2001014,3000014,3000015,3001015,3001014
383,2000015,2000016,2001016,2001015,3000015,3000016,3001016,3001015
384,2000016,2000017,2001017,2001016,3000016,3000017,3001017,3001016
385,2000017,2000018,2001018,2001017,3000017,3000018,3001018,3001017
386,2000018,2000019,2001019,2001018,3000018,3000019,3001019,3001018
387,2000019,2000020,2001020,2001019,3000019,3000020,3001020,3001019
388,2000020,2000021,2001021,2001020,3000020,3000021,3001021,3001020
389,2001001,2001002,2002002,2002001,3001001,3001002,3002002,3002001
390,2001002,2001003,2002003,2002002,3001002,3001003,3002003,3002002
391,2001003,2001004,2002004,2002003,3001003,3001004,3002004,3002003
392,2001004,2001005,2002005,2002004,3001004,3001005,3002005,3002004
393,2001005,2001006,2002006,2002005,3001005,3001006,3002006,3002005
394,2001006,2001007,2002007,2002006,3001006,3001007,3002007,3002006
395,2001007,2001008,2002008,2002007,3001007,3001008,3002008,3002007
396,2001008,2001009,2002009,2002008,3001008,3001009,3002009,3002008
397,2001009,2001010,2002010,2002009,3001009,3001010,3002010,3002009
398,2001010,2001011,2002011,2002010,3001010,3001011,3002011,3002010
399,2001011,2001012,2002012,2002011,3001011,3001012,3002012,3002011
400,2001012,2001013,2002013,2002012,3001012,3001013,3002013,3002012
401,2001013,2001014,2002014,2002013,3001013,3001014,3002014,3002013
402,2001014,2001015,2002015,2002014,3001014,3001015,3002015,3002014
403,2001015,2001016,2002016,2002015,3001015,3001016,3002016,3002015
404,2001016,2001017,2002017,2002016,3001016,3001017,3002017,3002016
405,2001017,2001018,2002018,2002017,3001017,3001018,3002018,3002017
406,2001018,2001019,2002019,2002018,3001018,3001019,3002019,3002018
407,2001019,2001020,2002020,2002019,3001019,3001020,3002020,3002019
408,2001020,2001021,2002021,2002020,3001020,3001021,3002021,3002020
409,2002001,2002002,2003002,2003001,3002001,3002002,3003002,3003001
410,2002002,2002003,2003003,2003002,3002002,3002003,3003003,3003002
411,2002003,2002004,2003004,2003003,3002003,3002004,3003004,3003003
412,2002004,2002005,2003005,2003004,3002004,3002005,3003005,3003004
413,2002005,2002006,2003006,2003005,3002005,3002006,3003006,3003005
414,2002006,2002007,2003007,2003006,3002006,3002007,3003007,3003006
415,2002007,2002008,2003008,2003007,3002007,3002008,3003008,3003007
416,2002008,2002009,2003009,2003008,3002008,3002009,3003009,3003008
417,2002009,2002010,2003010,2003009,3002009,3002010,3003010,3003009
418,2002010,2002011,2003011,2003010,3002010,3002011,3003011,3003010
419,2002011,2002012,2003012,2003011,3002011,3002012,3003012,3003011
420,2002012,2002013,2003013,2003012,3002012,3002013,3003013,3003012
421,2002013,2002014,2003014,2003013,3002013,3002014,3003014,3003013
422,2002014,2002015,2003015,2003014,3002014,3002015,3003015,3003014
423,2002015,2002016,2003016,2003015,3002015,3002016,3003016,3003015
424,2002016,2002017,2003017,2003016,3002016,3002017,3003017,3003016
425,2002017,2002018,2003018,2003017,3002017,3002018,3003018,3003017
426,2002018,2002019,2003019,2003018,3002018,3002019,3003019,3003018
427,2002019,2002020,2003020,2003019,3002019,3002020,3003020,3003019
428,2002020,2002021,2003021,2003020,3002020,3002021,3003021,3003020
429,2003001,2003002,2004002,2004001,3003001,3003002,3004002,3004001
430,2003002,2003003,2004003,2004002,3003002,3003003,3004003,3004002
431,2003003,2003004,2004004,2004003,3003003,3003004,3004004,3004003
432,2003004,2003005,2004005,2004004,3003004,3003005,3004005,3004004
433,2003005,2003006,2004006,2004005,3003005,3003006,3004006,3004005
434,2003006,2003007,2004007,2004006,3003006,3003007,3004007,3004006
435,2003007,2003008,2004008,2004007,3003007,3003008,3004008,3004007
436,2003008,2003009,2004009,2004008,3003008,3003009,3004009,3004008
437,2003009,2003010,2004010,2004009,3003009,3003010,3004010,3004009
438,2003010,2003011,2004011,2004010,3003010,3003011,3004011,3004010
439,2003011,2003012,2004012,2004011,3003011,3003012,3004012,3004011
440,2003012,2003013,2004013,2004012,3003012,3003013,3004013,3004012
441,2003013,2003014,2004014,2004013,3003013,3003014,3004014,3004013
442,2003014,2003015,2004015,2004014,3003014,3003015,3004015,3004014
443,2003015,2003016,2004016,2004015,3003015,3003016,3004016,3004015
444,2003016,2003017,2004017,2004016,3003016,3003017,3004017,3004016
445,2003017,2003018,2004018,2004017,3003017,3003018,3004018,3004017
446,2003018,2003019,2004019,2004018,3003018,3003019,3004019,3004018
447,2003019,2003020,2004020,2004019,3003019,3003020,3004020,3004019
448,2003020,2003021,2004021,2004020,3003020,3003021,3004021,3004020
449,2004001,2004002,2005002,2005001,3004001,3004002,3005002,3005001
450,2004002,2004003,2005003,2005002,3004002,3004003,3005003,3005002
451,2004003,2004004,2005004,2005003,3004003,3004004,3005004,3005003
452,2004004,2004005,2005005,2005004,3004004,3004005,3005005,3005004
453,2004005,2004006,2005006,2005005,3004005,3004006,3005006,3005005
454,2004006,2004007,2005007,2005006,3004006,3004007,3005007,3005006
455,2004007,2004008,2005008,2005007,3004007,3004008,3005008,3005007
456,2004008,2004009,2005009,2005008,3004008,3004009,3005009,3005008
457,2004009,2004010,2005010,2005009,3004009,3004010,3005010,3005009
458,2004010,2004011,2005011,2005010,3004010,3004011,3005011,3005010
459,2004011,2004012,2005012,2005011,3004011,3004012,3005012,3005011
460,2004012,2004013,2005013,2005012,3004012,3004013,3005013,3005012
461,2004013,2004014,2005014,2005013,3004013,3004014,3005014,3005013
462,2004014,2004015,2005015,2005014,3004014,3004015,3005015,3005014
463,2004015,2004016,2005016,2005015,3004015,3004016,3005016,3005015
464,2004016,2004017,2005017,2005016,3004016,3004017,3005017,3005016
465,2004017,2004018,2005018,2005017,3004017,3004018,3005018,3005017
466,2004018,2004019,2005019,2005018,3004018,3004019,3005019,3005018
467,2004019,2004020,2005020,2005019,3004019,3004020,3005020,3005019
468,2004020,2004021,2005021,2005020,3004020,3004021,3005021,3005020
469,2005001,2005002,2006002,2006001,3005001,3005002,3006002,3006001
470,2005002,2005003,2006003,2006002,3005002,3005003,3006003,3006002
471,2005003,2005004,2006004,2006003,3005003,3005004,3006004,3006003
472,2005004,2005005,2006005,2006004,3005004,3005005,3006005,3006004
473,2005005,2005006,2006006,2006005,3005005,3005006,3006006,3006005
474,2005006,2005007,2006007,2006006,3005006,3005007,3006007,3006006
475,2005007,2005008,2006008,2006007,3005007,3005008,3006008,3006007
476,2005008,2005009,2006009,2006008,3005008,3005009,3006009,3006008
477,2005009,2005010,2006010,2006009,3005009,3005010,3006010,3006009
478,2005010,2005011,2006011,2006010,3005010,3005011,3006011,3006010
479,2005011,2005012,2006012,2006011,3005011,3005012,3006012,3006011
480,2005012,2005013,2006013,2006012,3005012,3005013,3006013,3006012
481,2005013,2005014,2006014,2006013,3005013,3005014,3006014,3006013
482,2005014,2005015,2006015,2006014,3005014,3005015,3006015,3006014
483,2005015,2005016,2006016,2006015,3005015,3005016,3006016,3006015
484,2005016,2005017,2006017,2006016,3005016,3005017,3006017,3006016
485,2005017,2005018,2006018,2006017,3005017,3005018,3006018,3006017
486,2005018,2005019,2006019,2006018,3005018,3005019,3006019,3006018
487,2005019,2005020,2006020,2006019,3005019,3005020,3006020,3006019
488,2005020,2005021,2006021,2006020,3005020,3005021,3006021,3006020
489,2006001,2006002,2007002,2007001,3006001,3006002,3007002,3007001
490,2006002,2006003,2007003,2007002,3006002,3006003,3007003,3007002
491,2006003,2006004,2007004,2007003,3006003,3006004,3007004,3007003
492,2006004,2006005,2007005,2007004,3006004,3006005,3007005,3007004
493,2006005,2006006,2007006,2007005,3006005,3006006,3007006,3007005
494,2006006,2006007,2007007,2007006,3006006,3006007,3007007,3007006
495,2006007,2006008,2007008,2007007,3006007,3006008,3007008,3007007
496,2006008,2006009,2007009,2007008,3006008,3006009,3007009,3007008
497,2006009,2006010,2007010,2007009,3006009,3006010,3007010,3007009
498,2006010,2006011,2007011,2007010,3006010,3006011,3007011,3007010
499,2006011,2006012,2007012,2007011,3006011,3006012,3007012,3007011
500,2006012,2006013,2007013,2007012,3006012,3006013,3007013,3007012
501,2006013,2006014,2007014,2007013,3006013,3006014,3007014,3007013
502,2006014,2006015,2007015,2007014,3006014,3006015,3007015,3007014
503,2006015,2006016,2007016,2007015,3006015,3006016,3007016,3007015
504,2006016,2006017,2007017,2007016,3006016,3006017,3007017,3007016
505,2006017,2006018,2007018,2007017,3006017,3006018,3007018,3007017
506,2006018,2006019,2007019,2007018,3006018,3006019,3007019,3007018
507,2006019,2006020,2007020,2007019,3006019,3006020,3007020,3007019
508,2006020,2006021,2007021,2007020,3006020,3006021,3007021,3007020
509,2007001,2007002,2008002,2008001,3007001,3007002,3008002,3008001
510,2007002,2007003,2008003,2008002,3007002,3007003,3008003,3008002
511,2007003,2007004,2008004,2008003,3007003,3007004,3008004,3008003
512,2007004,2007005,2008005,2008004,3007004,3007005,3008005,3008004
513,2007005,2007006,2008006,2008005,3007005,3007006,3008006,3008005
514,2007006,2007007,2008007,2008006,3007006,3007007,3008007,3008006
515,2007007,2007008,2008008,2008007,3007007,3007008,3008008,3008007
516,2007008,2007009,2008009,2008008,3007008,3007009,3008009,3008008
517,2007013,2007014,2008014,2008013,3007013,3007014,3008014,3008013
518,2007014,2007015,2008015,2008014,3007014,3007015,3008015,3008014
519,2007015,2007016,2008016,2008015,3007015,3007016,3008016,3008015
520,2007016,2007017,2008017,2008016,3007016,3007017,3008017,3008016
521,2007017,2007018,2008018,2008017,3007017,3007018,3008018,3008017
522,2007018,2007019,2008019,2008018,3007018,3007019,3008019,3008018
523,2007019,2007020,2008020,2008019,3007019,3007020,3008020,3008019
524,2007020,2007021,2008021,2008020,3007020,3007021,3008021,3008020
525,2008001,2008002,2009002,2009001,3008001,3008002,3009002,3009001
526,2008002,2008003,2009003,2009002,3008002,3008003,3009003,3009002
527,2008003,2008004,2009004,2009003,3008003,3008004,3009004,3009003
528,2008004,2008005,2009005,2009004,3008004,3008005,3009005,3009004
529,2008005,2008006,2009006,2009005,3008005,3008006,3009006,3009005
530,2008006,2008007,2009007,2009006,3008006,3008007,3009007,3009006
531,2008007,2008008,2009008,2009007,3008007,3008008,3009008,3009007
532,2008014,2008015,2009015,2009014,3008014,3008015,3009015,3009014
533,2008015,2008016,2009016,2009015,3008015,3008016,3009016,3009015
534,2008016,2008017,2009017,2009016,3008016,3008017,3009017,3009016
535,2008017,2008018,2009018,2009017,3008017,3008018,3009018,3009017
536,2008018,2008019,2009019,2009018,3008018,3008019,3009019,3009018
537,2008019,2008020,2009020,2009019,3008019,3008020,3009020,3009019
538,2008020,2008021,2009021,2009020,3008020,3008021,3009021,3009020
539,2009001,2009002,2010002,2010001,3009001,3009002,3010002,3010001
540,2009002,2009003,2010003,2010002,3009002,3009003,3010003,3010002
541,2009003,2009004,2010004,2010003,3009003,3009004,3010004,3010003
542,2009004,2009005,2010005,2010004,3009004,3009005,3010005,3010004
543,2009005,2009006,2010006,2010005,3009005,3009006,3010006,3010005
544,2009006,2009007,2010007,2010006,3009006,3009007,3010007,3010006
545,2009007,2009008,2010008,2010007,3009007,3009008,3010008,3010007
546,2009014,2009015,2010015,2010014,3009014,3009015,3010015,3010014
547,2009015,2009016,2010016,2010015,3009015,3009016,3010016,3010015
548,2009016,2009017,2010017,2010016,3009016,3009017,3010017,3010016
549,2009017,2009018,2010018,2010017,3009017,3009018,3010018,3010017
550,2009018,2009019,2010019,2010018,3009018,3009019,3010019,3010018
551,2009019,2009020,2010020,2010019,3009019,3009020,3010020,3010019
552,2009020,2009021,2010021,2010020,3009020,3009021,3010021,3010020
553,2010001,2010002,2011002,2011001,3010001,3010002,3011002,3011001
554,2010002,2010003,2011003,2011002,3010002,3010003,3011003,3011002
555,2010003,2010004,2011004,2011003,3010003,3010004,3011004,3011003
556,2010004,2010005,2011005,2011004,3010004,3010005,3011005,3011004
557,2010005,2010006,2011006,2011005,3010005,3010006,3011006,3011005
558,2010006,2010007,2011007,2011006,3010006,3010007,3011007,3011006
559,2010007,2010008,2011008,2011007,3010007,3010008,3011008,3011007
560,2010014,2010015,2011015,2011014,3010014,3010015,3011015,3011014
561,2010015,2010016,2011016,2011015,3010015,3010016,3011016,3011015
562,2010016,2010017,2011017,2011016,3010016,3010017,3011017,3011016
563,2010017,2010018,2011018,2011017,3010017,3010018,3011018,3011017
564,2010018,2010019,2011019,2011018,3010018,3010019,3011019,3011018
565,2010019,2010020,2011020,2011019,3010019,3010020,3011020,3011019
566,2010020,2010021,2011021,2011020,3010020,3010021,3011021,3011020
567,2011001,2011002,2012002,2012001,3011001,3011002,3012002,3012001
568,2011002,2011003,2012003,2012002,3011002,3011003,3012003,3012002
569,2011003,2011004,2012004,2012003,3011003,3011004,3012004,3012003
570,2011004,2011005,2012005,2012004,3011004,3011005,3012005,3012004
571,2011005,2011006,2012006,2012005,3011005,3011006,3012006,3012005
572,2011006,2011007,2012007,2012006,3011006,3011007,3012007,3012006
573,2011007,2011008,2012008,2012007,3011007,3011008,3012008,3012007
574,2011014,2011015,2012015,2012014,3011014,3011015,3012015,3012014
575,2011015,2011016,2012016,2012015,3011015,3011016,3012016,3012015
576,2011016,2011017,2012017,2012016,3011016,3011017,3012017,3012016
577,2011017,2011018,2012018,2012017,3011017,3011018,3012018,3012017
578,2011018,2011019,2012019,2012018,3011018,3011019,3012019,3012018
579,2011019,2011020,2012020,2012019,3011019,3011020,3012020,3012019
580,2011020,2011021,2012021,2012020,3011020,3011021,3012021,3012020
581,2012001,2012002,2013002,2013001,3012001,3012002,3013002,3013001
582,2012002,2012003,2013003,2013002,3012002,3012003,3013003,3013002
583,2012003,2012004,2013004,2013003,3012003,3012004,3013004,3013003
584,2012004,2012005,2013005,2013004,3012004,3012005,3013005,3013004
585,2012005,2012006,2013006,2013005,3012005,3012006,3013006,3013005
586,2012006,2012007,2013007,2013006,3012006,3012007,3013007,3013006
587,2012007,2012008,2013008,2013007,3012007,3012008,3013008,3013007
588,2012008,2012009,2013009,2013008,3012008,3012009,3013009,3013008
589,2012013,2012014,2013014,2013013,3012013,3012014,3013014,3013013
590,2012014,2012015,2013015,2013014,3012014,3012015,3013015,3013014
591,2012015,2012016,2013016,2013015,3012015,3012016,3013016,3013015
592,2012016,2012017,2013017,2013016,3012016,3012017,3013017,3013016
593,2012017,2012018,2013018,2013017,3012017,3012018,3013018,3013017
594,2012018,2012019,2013019,2013018,3012018,3012019,3013019,3013018
595,2012019,2012020,2013020,2013019,3012019,3012020,3013020,3013019
596,2012020,2012021,2013021,2013020,3012020,3012021,3013021,3013020
597,2013001,2013002,2014002,2014001,3013001,3013002,3014002,3014001
598,2013002,2013003,2014003,2014002,3013002,3013003,3014003,3014002
599,2013003,2013004,2014004,2014003,3013003,3013004,3014004,3014003
600,2013004,2013005,2014005,2014004,3013004,3013005,3014005,3014004
601,2013005,2013006,2014006,2014005,3013005,3013006,3014006,3014005
602,2013006,2013007,2014007,2014006,3013006,3013007,3014007,3014006
603,2013007,2013008,2014008,2014007,3013007,3013008,3014008,3014007
604,2013008,2013009,2014009,2014008,3013008,3013009,3014009,3014008
605,2013009,2013010,2014010,2014009,3013009,3013010,3014010,3014009
606,2013010,2013011,2014011,2014010,3013010,3013011,3014011,3014010
607,2013011,2013012,2014012,2014011,3013011,3013012,3014012,3014011
608,2013012,2013013,2014013,2014012,3013012,3013013,3014013,3014012
609,2013013,2013014,2014014,2014013,3013013,3013014,3014014,3014013
610,2013014,2013015,2014015,2014014,3013014,3013015,3014015,3014014
611,2013015,2013016,2014016,2014015,3013015,3013016,3014016,3014015
612,2013016,2013017,2014017,2014016,3013016,3013017,3014017,3014016
613,2013017,2013018,2014018,2014017,3013017,3013018,3014018,3014017
614,2013018,2013019,2014019,2014018,3013018,3013019,3014019,3014018
615,2013019,2013020,2014020,2014019,3013019,3013020,3014020,3014019
616,2013020,2013021,2014021,2014020,3013020,3013021,3014021,3014020
617,2014001,2014002,2015002,2015001,3014001,3014002,3015002,3015001
618,2014002,2014003,2015003,2015002,3014002,3014003,3015003,3015002
619,2014003,2014004,2015004,2015003,3014003,3014004,3015004,3015003
620,2014004,2014005,2015005,2015004,3014004,3014005,3015005,3015004
621,2014005,2014006,2015006,2015005,3014005,3014006,3015006,3015005
622,2014006,2014007,2015007,2015006,3014006,3014007,3015007,3015006
623,2014007,2014008,2015008,2015007,3014007,3014008,3015008,3015007
624,2014008,2014009,2015009,2015008,3014008,3014009,3015009,3015008
625,2014009,2014010,2015010,2015009,3014009,3014010,3015010,3015009
626,2014010,2014011,2015011,2015010,3014010,3014011,3015011,3015010
627,2014011,2014012,2015012,2015011,3014011,3014012,3015012,3015011
628,2014012,2014013,2015013,2015012,3014012,3014013,3015013,3015012
629,2014013,2014014,2015014,2015013,3014013,3014014,3015014,3015013
630,2014014,2014015,2015015,2015014,3014014,3014015,3015015,3015014
631,2014015,2014016,2015016,2015015,3014015,3014016,3015016,3015015
632,2014016,2014017,2015017,2015016,3014016,3014017,3015017,3015016
633,2014017,2014018,2015018,2015017,3014017,3014018,3015018,3015017
634,2014018,2014019,2015019,2015018,3014018,3014019,3015019,3015018
635,2014019,2014020,2015020,2015019,3014019,3014020,3015020,3015019
636,2014020,2014021,2015021,2015020,3014020,3014021,3015021,3015020
637,2015001,2015002,2016002,2016001,3015001,3015002,3016002,3016001
638,2015002,2015003,2016003,2016002,3015002,3015003,3016003,3016002
639,2015003,2015004,2016004,2016003,3015003,3015004,3016004,3016003
640,2015004,2015005,2016005,2016004,3015004,3015005,3016005,3016004
641,2015005,2015006,2016006,2016005,3015005,3015006,3016006,3016005
642,2015006,2015007,2016007,2016006,3015006,3015007,3016007,3016006
643,2015007,2015008,2016008,2016007,3015007,3015008,3016008,3016007
644,2015008,2015009,2016009,2016008,3015008,3015009,3016009,3016008
645,2015009,2015010,2016010,2016009,3015009,3015010,3016010,3016009
646,2015010,2015011,2016011,2016010,3015010,3015011,3016011,3016010
647,2015011,2015012,2016012,2016011,3015011,3015012,3016012,3016011
648,2015012,2015013,2016013,2016012,3015012,3015013,3016013,3016012
649,2015013,2015014,2016014,2016013,3015013,3015014,3016014,3016013
650,2015014,2015015,2016015,2016014,3015014,3015015,3016015,3016014
651,2015015,2015016,2016016,2016015,3015015,3015016,3016016,3016015
652,2015016,2015017,2016017,2016016,3015016,3015017,3016017,3016016
653,2015017,2015018,2016018,2016017,3015017,3015018,3016018,3016017
654,2015018,2015019,2016019,2016018,3015018,3015019,3016019,3016018
655,2015019,2015020,2016020,2016019,3015019,3015020,3016020,3016019
656,2015020,2015021,2016021,2016020,3015020,3015021,3016021,3016020
657,2016001,2016002,2017002,2017001,3016001,3016002,3017002,3017001
658,2016002,2016003,2017003,2017002,3016002,3016003,3017003,3017002
659,2016003,2016004,2017004,2017003,3016003,3016004,3017004,3017003
660,2016004,2016005,2017005,2017004,3016004,3016005,3017005,3017004
661,2016005,2016006,2017006,2017005,3016005,3016006,3017006,3017005
662,2016006,2016007,2017007,2017006,3016006,3016007,3017007,3017006
663,2016007,2016008,2017008,2017007,3016007,3016008,3017008,3017007
664,2016008,2016009,2017009,2017008,3016008,3016009,3017009,3017008
665,2016009,2016010,2017010,2017009,3016009,3016010,3017010,3017009
666,2016010,2016011,2017011,2017010,3016010,3016011,3017011,3017010
667,2016011,2016012,2017012,2017011,3016011,3016012,3017012,3017011
668,2016012,2016013,2017013,2017012,3016012,3016013,3017013,3017012
669,2016013,2016014,2017014,2017013,3016013,3016014,3017014,3017013
670,2016014,2016015,2017015,2017014,3016014,3016015,3017015,3017014
671,2016015,2016016,2017016,2017015,3016015,3016016,3017016,3017015
672,2016016,2016017,2017017,2017016,3016016,3016017,3017017,3017016
673,2016017,2016018,2017018,2017017,3016017,3016018,3017018,3017017
674,2016018,2016019,2017019,2017018,3016018,3016019,3017019,3017018
675,2016019,2016020,2017020,2017019,3016019,3016020,3017020,3017019
676,2016020,2016021,2017021,2017020,3016020,3016021,3017021,3017020
677,2017001,2017002,2018002,2018001,3017001,3017002,3018002,3018001
678,2017002,2017003,2018003,2018002,3017002,3017003,3018003,3018002
679,2017003,2017004,2018004,2018003,3017003,3017004,3018004,3018003
680,2017004,2017005,2018005,2018004,3017004,3017005,3018005,3018004
681,2017005,2017006,2018006,2018005,3017005,3017006,3018006,3018005
682,2017006,2017007,2018007,2018006,3017006,3017007,3018007,3018006
683,2017007,2017008,2018008,2018007,3017007,3017008,3018008,3018007
684,2017008,2017009,2018009,2018008,3017008,3017009,3018009,3018008
685,2017009,2017010,2018010,2018009,3017009,3017010,3018010,3018009
686,2017010,2017011,2018011,2018010,3017010,3017011,3018011,3018010
687,2017011,2017012,2018012,2018011,3017011,3017012,3018012,3018011
688,2017012,2017013,2018013,2018012,3017012,3017013,3018013,3018012
689,2017013,2017014,2018014,2018013,3017013,3017014,3018014,3018013
690,2017014,2017015,2018015,2018014,3017014,3017015,3018015,3018014
691,2017015,2017016,2018016,2018015,3017015,3017016,3018016,3018015
692,2017016,2017017,2018017,2018016,3017016,3017017,3018017,3018016
693,2017017,2017018,2018018,2018017,3017017,3017018,3018018,3018017
694,2017018,2017019,2018019,2018018,3017018,3017019,3018019,3018018
695,2017019,2017020,2018020,2018019,3017019,3017020,3018020,3018019
696,2017020,2017021,2018021,2018020,3017020,3017021,3018021,3018020
697,2018001,2018002,2019002,2019001,3018001,3018002,3019002,3019001
698,2018002,2018003,2019003,2019002,3018002,3018003,3019003,3019002
699,2018003,2018004,2019004,2019003,3018003,3018004,3019004,3019003
700,2018004,2018005,2019005,2019004,3018004,3018005,3019005,3019004
701,2018005,2018006,2019006,2019005,3018005,3018006,3019006,3019005
702,2018006,2018007,2019007,2019006,3018006,3018007,3019007,3019006
703,2018007,2018008,2019008,2019007,3018007,3018008,3019008,3019007
704,2018008,2018009,2019009,2019008,3018008,3018009,3019009,3019008
705,2018009,2018010,2019010,2019009,3018009,3018010,3019010,3019009
706,2018010,2018011,2019011,2019010,3018010,3018011,3019011,3019010
707,2018011,2018012,2019012,2019011,3018011,3018012,3019012,3019011
708,2018012,2018013,2019013,2019012,3018012,3018013,3019013,3019012
709,2018013,2018014,2019014,2019013,3018013,3018014,3019014,3019013
710,2018014,2018015,2019015,2019014,3018014,3018015,3019015,3019014
711,2018015,2018016,2019016,2019015,3018015,3018016,3019016,3019015
712,2018016,2018017,2019017,2019016,3018016,3018017,3019017,3019016
713,2018017,2018018,2019018,2019017,3018017,3018018,3019018,3019017
714,2018018,2018019,2019019,2019018,3018018,3018019,3019019,3019018
715,2018019,2018020,2019020,2019019,3018019,3018020,3019020,3019019
716,2018020,2018021,2019021,2019020,3018020,3018021,3019021,3019020
717,2019001,2019002,2020002,2020001,3019001,3019002,3020002,3020001
718,2019002,2019003,2020003,2020002,3019002,3019003,3020003,3020002
719,2019003,2019004,2020004,2020003,3019003,3019004,3020004,3020003
720,2019004,2019005,2020005,2020004,3019004,3019005,3020005,3020004
721,2019005,2019006,2020006,2020005,3019005,3019006,3020006,3020005
722,2019006,2019007,2020007,2020006,3019006,3019007,3020007,3020006
723,2019007,2019008,2020008,2020007,3019007,3019008,3020008,3020007
724,2019008,2019009,2020009,2020008,3019008,3019009,3020009,3020008
725,2019009,2019010,2020010,2020009,3019009,3019010,3020010,3020009
726,2019010,2019011,2020011,2020010,3019010,3019011,3020011,3020010
727,2019011,2019012,2020012,2020011,3019011,3019012,3020012,3020011
728,2019012,2019013,2020013,2020012,3019012,3019013,3020013,3020012
729,2019013,2019014,2020014,2020013,3019013,3019014,3020014,3020013
730,2019014,2019015,2020015,2020014,3019014,3019015,3020015,3020014
731,2019015,2019016,2020016,2020015,3019015,3019016,3020016,3020015
732,2019016,2019017,2020017,2020016,3019016,3019017,3020017,3020016
733,2019017,2019018,2020018,2020017,3019017,3019018,3020018,3020017
734,2019018,2019019,2020019,2020018,3019018,3019019,3020019,3020018
735,2019019,2019020,2020020,2020019,3019019,3019020,3020020,3020019
736,2019020,2019021,2020021,2020020,3019020,3019021,3020021,3020020
737,3000001,3000002,3001002,3001001,4000001,4000002,4001002,4001001
738,3000002,3000003,3001003,3001002,4000002,4000003,4001003,4001002
739,3000003,3000004,3001004,3001003,4000003,4000004,4001004,4001003
740,3000004,3000005,3001005,3001004,4000004,4000005,4001005,4001004
741,3000005,3000006,3001006,3001005,4000005,4000006,4001006,4001005
742,3000006,3000007,3001007,3001006,4000006,4000007,4001007,4001006
743,3000007,3000008,3001008,3001007,4000007,4000008,4001008,4001007
744,3000008,3000009,3001009,3001008,4000008,4000009,4001009,4001008
745,3000009,3000010,3001010,3001009,4000009,4000010,4001010,4001009
746,3000010,3000011,3001011,3001010,4000010,4000011,4001011,4001010
747,3000011,3000012,3001012,3001011,4000011,4000012,4001012,4001011
748,3000012,3000013,3001013,3001012,4000012,4000013,4001013,4001012
749,3000013,3000014,3001014,3001013,4000013,4000014,4001014,4001013
750,3000014,3000015,3001015,3001014,4000014,4000015,4001015,4001014
751,3000015,3000016,3001016,3001015,4000015,4000016,4001016,4001015
752,3000016,3000017,3001017,3001016,4000016,4000017,4001017,4001016
753,3000017,3000018,3001018,3001017,4000017,4000018,4001018,4001017
754,3000018,3000019,3001019,3001018,4000018,4000019,4001019,4001018
755,3000019,3000020,3001020,3001019,4000019,4000020,4001020,4001019
756,3000020,3000021,3001021,3001020,4000020,4000021,4001021,4001020
757,3001001,3001002,3002002,3002001,4001001,4001002,4002002,4002001
758,3001002,3001003,3002003,3002002,4001002,4001003,4002003,4002002
759,3001003,3001004,3002004,3002003,4001003,4001004,4002004,4002003
760,3001004,3001005,3002005,3002004,4001004,4001005,4002005,4002004
761,3001005,3001006,3002006,3002005,4001005,4001006,4002006,4002005
762,3001006,3001007,3002007,3002006,4001006,4001007,4002007,4002006
763,3001007,3001008,3002008,3002007,4001007,4001008,4002008,4002007
764,3001008,3001009,3002009,3002008,4001008,4001009,4002009,4002008
765,3001009,3001010,3002010,3002009,4001009,4001010,4002010,4002009
766,3001010,3001011,3002011,3002010,4001010,4001011,4002011,4002010
767,3001011,3001012,3002012,3002011,4001011,4001012,4002012,4002011
768,3001012,3001013,3002013,3002012,4001012,4001013,4002013,4002012
769,3001013,3001014,3002014,3002013,4001013,4001014,4002014,4002013
770,3001014,3001015,3002015,3002014,4001014,4001015,4002015,4002014
771,3001015,3001016,3002016,3002015,4001015,4001016,4002016,4002015
772,3001016,3001017,3002017,3002016,4001016,4001017,4002017,4002016
773,3001017,3001018,3002018,3002017,4001017,4001018,4002018,4002017
774,3001018,3001019,3002019,3002018,4001018,4001019,4002019,4002018
775,3001019,3001020,3002020,3002019,4001019,4001020,4002020,4002019
776,3001020,3001021,3002021,3002020,4001020,4001021,4002021,4002020
777,3002001,3002002,3003002,3003001,4002001,4002002,4003002,4003001
778,3002002,3002003,3003003,3003002,4002002,4002003,4003003,4003002
779,3002003,3002004,3003004,3003003,4002003,4002004,4003004,4003003
780,3002004,3002005,3003005,3003004,4002004,4002005,4003005,4003004
781,3002005,3002006,3003006,3003005,4002005,4002006,4003006,4003005
782,3002006,3002007,3003007,3003006,4002006,4002007,4003007,4003006
783,3002007,3002008,3003008,3003007,4002007,4002008,4003008,4003007
784,3002008,3002009,3003009,3003008,4002008,4002009,4003009,4003008
785,3002009,3002010,3003010,3003009,4002009,4002010,4003010,4003009
786,3002010,3002011,3003011,3003010,4002010,4002011,4003011,4003010
787,3002011,3002012,3003012,3003011,4002011,4002012,4003012,4003011
788,3002012,3002013,3003013,3003012,4002012,4002013,4003013,4003012
789,3002013,3002014,3003014,3003013,4002013,4002014,4003014,4003013
790,3002014,3002015,3003015,3003014,4002014,4002015,4003015,4003014
791,3002015,3002016,3003016,3003015,4002015,4002016,4003016,4003015
792,3002016,3002017,3003017,3003016,4002016,4002017,4003017,4003016
793,3002017,3002018,3003018,3003017,4002017,4002018,4003018,4003017
794,3002018,3002019,3003019,3003018,4002018,4002019,4003019,4003018
795,3002019,3002020,3003020,3003019,4002019,4002020,4003020,4003019
796,3002020,3002021,3003021,3003020,4002020,4002021,4003021,4003020
797,3003001,3003002,3004002,3004001,4003001,4003002,4004002,4004001
798,3003002,3003003,3004003,3004002,4003002,4003003,4004003,4004002
799,3003003,3003004,3004004,3004003,4003003,4003004,4004004,4004003
800,3003004,3003005,3004005,3004004,4003004,4003005,4004005,4004004
801,3003005,3003006,3004006,3004005,4003005,4003006,4004006,4004005
802,3003006,3003007,3004007,3004006,4003006,4003007,4004007,4004006
803,3003007,3003008,3004008,3004007,4003007,4003008,4004008,4004007
804,3003008,3003009,3004009,3004008,4003008,4003009,4004009,4004008
805,3003009,3003010,3004010,3004009,4003009,4003010,4004010,4004009
806,3003010,3003011,3004011,3004010,4003010,4003011,4004011,4004010
807,3003011,3003012,3004012,3004011,4003011,4003012,4004012,4004011
808,3003012,3003013,3004013,3004012,4003012,4003013,4004013,4004012
809,3003013,3003014,3004014,3004013,4003013,4003014,4004014,4004013
810,3003014,3003015,3004015,3004014,4003014,4003015,4004015,4004014
811,3003015,3003016,3004016,3004015,4003015,4003016,4004016,4004015
812,3003016,3003017,3004017,3004016,4003016,4003017,4004017,4004016
813,3003017,3003018,3004018,3004017,4003017,4003018,4004018,4004017
814,3003018,3003019,3004019,3004018,4003018,4003019,4004019,4004018
815,3003019,3003020,3004020,3004019,4003019,4003020,4004020,4004019
816,3003020,3003021,3004021,3004020,4003020,4003021,4004021,4004020
817,3004001,3004002,3005002,3005001,4004001,4004002,4005002,4005001
818,3004002,3004003,3005003,3005002,4004002,4004003,4005003,4005002
819,3004003,3004004,3005004,3005003,4004003,4004004,4005004,4005003
820,3004004,3004005,3005005,3005004,4004004,4004005,4005005,4005004
821,3004005,3004006,3005006,3005005,4004005,4004006,4005006,4005005
822,3004006,3004007,3005007,3005006,4004006,4004007,4005007,4005006
823,3004007,3004008,3005008,3005007,4004007,4004008,4005008,4005007
824,3004008,3004009,3005009,3005008,4004008,4004009,4005009,4005008
825,3004009,3004010,3005010,3005009,4004009,4004010,4005010,4005009
826,3004010,3004011,3005011,3005010,4004010,4004011,4005011,4005010
827,3004011,3004012,3005012,3005011,4004011,4004012,4005012,4005011
828,3004012,3004013,3005013,3005012,4004012,4004013,4005013,4005012
829,3004013,3004014,3005014,3005013,4004013,4004014,4005014,4005013
830,3004014,3004015,3005015,3005014,4004014,4004015,4005015,4005014
831,3004015,3004016,3005016,3005015,4004015,4004016,4005016,4005015
832,3004016,3004017,3005017,3005016,4004016,4004017,4005017,4005016
833,3004017,3004018,3005018,3005017,4004017,4004018,4005018,4005017
834,3004018,3004019,3005019,3005018,4004018,4004019,4005019,4005018
835,3004019,3004020,3005020,3005019,4004019,4004020,4005020,4005019
836,3004020,3004021,3005021,3005020,4004020,4004021,4005021,4005020
837,3005001,3005002,3006002,3006001,4005001,4005002,4006002,4006001
838,3005002,3005003,3006003,3006002,4005002,4005003,4006003,4006002
839,3005003,3005004,3006004,3006003,4005003,4005004,4006004,4006003
840,3005004,3005005,3006005,3006004,4005004,4005005,4006005,4006004
841,3005005,3005006,3006006,3006005,4005005,4005006,4006006,4006005
842,3005006,3005007,3006007,3006006,4005006,4005007,4006007,4006006
843,3005007,3005008,3006008,3006007,4005007,4005008,4006008,4006007
844,3005008,3005009,3006009,3006008,4005008,4005009,4006009,4006008
845,3005009,3005010,3006010,3006009,4005009,4005010,4006010,4006009
846,3005010,3005011,3006011,3006010,4005010,4005011,4006011,4006010
847,3005011,3005012,3006012,3006011,4005011,4005012,4006012,4006011
848,3005012,3005013,3006013,3006012,4005012,4005013,4006013,4006012
849,3005013,3005014,3006014,3006013,4005013,4005014,4006014,4006013
850,3005014,3005015,3006015,3006014,4005014,4005015,4006015,4006014
851,3005015,3005016,3006016,3006015,4005015,4005016,4006016,4006015
852,3005016,3005017,3006017,3006016,4005016,4005017,4006017,4006016
853,3005017,3005018,3006018,3006017,4005017,4005018,4006018,4006017
854,3005018,3005019,3006019,3006018,4005018,4005019,4006019,4006018
855,3005019,3005020,3006020,3006019,4005019,4005020,4006020,4006019
856,3005020,3005021,3006021,3006020,4005020,4005021,4006021,4006020
857,3006001,3006002,3007002,3007001,4006001,4006002,4007002,4007001
858,3006002,3006003,3007003,3007002,4006002,4006003,4007003,4007002
859,3006003,3006004,3007004,3007003,4006003,4006004,4007004,4007003
860,3006004,3006005,3007005,3007004,4006004,4006005,4007005,4007004
861,3006005,3006006,3007006,3007005,4006005,4006006,4007006,4007005
862,3006006,3006007,3007007,3007006,4006006,4006007,4007007,4007006
863,3006007,3006008,3007008,3007007,4006007,4006008,4007008,4007007
864,3006008,3006009,3007009,3007008,4006008,4006009,4007009,4007008
865,3006009,3006010,3007010,3007009,4006009,4006010,4007010,4007009
866,3006010,3006011,3007011,3007010,4006010,4006011,4007011,4007010
867,3006011,3006012,3007012,3007011,4006011,4006012,4007012,4007011
868,3006012,3006013,3007013,3007012,4006012,4006013,4007013,4007012
869,3006013,3006014,3007014,3007013,4006013,4006014,4007014,4007013
870,3006014,3006015,3007015,3007014,4006014,4006015,4007015,4007014
871,3006015,3006016,3007016,3007015,4006015,4006016,4007016,4007015
872,3006016,3006017,3007017,3007016,4006016,4006017,4007017,4007016
873,3006017,3006018,3007018,3007017,4006017,4006018,4007018,4007017
874,3006018,3006019,3007019,3007018,4006018,4006019,4007019,4007018
875,3006019,3006020,3007020,3007019,4006019,4006020,4007020,4007019
876,3006020,3006021,3007021,3007020,4006020,4006021,4007021,4007020
877,3007001,3007002,3008002,3008001,4007001,4007002,4008002,4008001
878,3007002,3007003,3008003,3008002,4007002,4007003,4008003,4008002
879,3007003,3007004,3008004,3008003,4007003,4007004,4008004,4008003
880,3007004,3007005,3008005,3008004,4007004,4007005,4008005,4008004
881,3007005,3007006,3008006,3008005,4007005,4007006,4008006,4008005
882,3007006,3007007,3008007,3008006,4007006,4007007,4008007,4008006
883,3007007,3007008,3008008,3008007,4007007,4007008,4008008,4008007
884,3007008,3007009,3008009,3008008,4007008,4007009,4008009,4008008
885,3007013,3007014,3008014,3008013,4007013,4007014,4008014,4008013
886,3007014,3007015,3008015,3008014,4007014,4007015,4008015,4008014
887,3007015,3007016,3008016,3008015,4007015,4007016,4008016,4008015
888,3007016,3007017,3008017,3008016,4007016,4007017,4008017,4008016
889,3007017,3007018,3008018,3008017,4007017,4007018,4008018,4008017
890,3007018,3007019,3008019,3008018,4007018,4007019,4008019,4008018
891,3007019,3007020,3008020,3008019,4007019,4007020,4008020,4008019
892,3007020,3007021,3008021,3008020,4007020,4007021,4008021,4008020
893,3008001,3008002,3009002,3009001,4008001,4008002,4009002,4009001
894,3008002,3008003,3009003,3009002,4008002,4008003,4009003,4009002
895,3008003,3008004,3009004,3009003,4008003,4008004,4009004,4009003
896,3008004,3008005,3009005,3009004,4008004,4008005,4009005,4009004
897,3008005,3008006,3009006,3009005,4008005,4008006,4009006,4009005
898,3008006,3008007,3009007,3009006,4008006,4008007,4009007,4009006
899,3008007,3008008,3009008,3009007,4008007,4008008,4009008,4009007
900,3008014,3008015,3009015,3009014,4008014,4008015,4009015,4009014
901,3008015,3008016,3009016,3009015,4008015,4008016,4009016,4009015
902,3008016,3008017,3009017,3009016,4008016,4008017,4009017,4009016
903,3008017,3008018,3009018,3009017,4008017,4008018,4009018,4009017
904,3008018,3008019,3009019,3009018,4008018,4008019,4009019,4009018
905,3008019,3008020,3009020,3009019,4008019,4008020,4009020,4009019
906,3008020,3008021,3009021,3009020,4008020,4008021,4009021,4009020
907,3009001,3009002,3010002,3010001,4009001,4009002,4010002,4010001
908,3009002,3009003,3010003,3010002,4009002,4009003,4010003,4010002
909,3009003,3009004,3010004,3010003,4009003,4009004,4010004,4010003
910,3009004,3009005,3010005,3010004,4009004,4009005,4010005,4010004
911,3009005,3009006,3010006,3010005,4009005,4009006,4010006,4010005
912,3009006,3009007,3010007,3010006,4009006,4009007,4010007,4010006
913,3009007,3009008,3010008,3010007,4009007,4009008,4010008,4010007
914,3009014,3009015,3010015,3010014,4009014,4009015,4010015,4010014
915,3009015,3009016,3010016,3010015,4009015,4009016,4010016,4010015
916,3009016,3009017,3010017,3010016,4009016,4009017,4010017,4010016
917,3009017,3009018,3010018,3010017,4009017,4009018,4010018,4010017
918,3009018,3009019,3010019,3010018,4009018,4009019,4010019,4010018
919,3009019,3009020,3010020,3010019,4009019,4009020,4010020,4010019
920,3009020,3009021,3010021,3010020,4009020,4009021,4010021,4010020
921,3010001,3010002,3011002,3011001,4010001,4010002,4011002,4011001
922,3010002,3010003,3011003,3011002,4010002,4010003,4011003,4011002
923,3010003,3010004,3011004,3011003,4010003,4010004,4011004,4011003
924,3010004,3010005,3011005,3011004,4010004,4010005,4011005,4011004
925,3010005,3010006,3011006,3011005,4010005,4010006,4011006,4011005
926,3010006,3010007,3011007,3011006,4010006,4010007,4011007,4011006
927,3010007,3010008,3011008,3011007,4010007,4010008,4011008,4011007
928,3010014,3010015,3011015,3011014,4010014,4010015,4011015,4011014
929,3010015,3010016,3011016,3011015,4010015,4010016,4011016,4011015
930,3010016,3010017,3011017,3011016,4010016,4010017,4011017,4011016
931,3010017,3010018,3011018,3011017,4010017,4010018,4011018,4011017
932,3010018,3010019,3011019,3011018,4010018,4010019,4011019,4011018
933,3010019,3010020,3011020,3011019,4010019,4010020,4011020,4011019
934,3010020,3010021,3011021,3011020,4010020,4010021,4011021,4011020
935,3011001,3011002,3012002,3012001,4011001,4011002,4012002,4012001
936,3011002,3011003,3012003,3012002,4011002,4011003,4012003,4012002
937,3011003,3011004,3012004,3012003,4011003,4011004,4012004,4012003
938,3011004,3011005,3012005,3012004,4011004,4011005,4012005,4012004
939,3011005,3011006,3012006,3012005,4011005,4011006,4012006,4012005
940,3011006,3011007,3012007,3012006,4011006,4011007,4012007,4012006
941,3011007,3011008,3012008,3012007,4011007,4011008,4012008,4012007
942,3011014,3011015,3012015,3012014,4011014,4011015,4012015,4012014
943,3011015,3011016,3012016,3012015,4011015,4011016,4012016,4012015
944,3011016,3011017,3012017,3012016,4011016,4011017,4012017,4012016
945,3011017,3011018,3012018,3012017,4011017,4011018,4012018,4012017
946,3011018,3011019,3012019,3012018,4011018,4011019,4012019,4012018
947,3011019,3011020,3012020,3012019,4011019,4011020,4012020,4012019
948,3011020,3011021,3012021,3012020,4011020,4011021,4012021,4012020
949,3012001,3012002,3013002,3013001,4012001,4012002,4013002,4013001
950,3012002,3012003,3013003,3013002,4012002,4012003,4013003,4013002
951,3012003,3012004,3013004,3013003,4012003,4012004,4013004,4013003
952,3012004,3012005,3013005,3013004,4012004,4012005,4013005,4013004
953,3012005,3012006,3013006,3013005,4012005,4012006,4013006,4013005
954,3012006,3012007,3013007,3013006,4012006,4012007,4013007,4013006
955,3012007,3012008,3013008,3013007,4012007,4012008,4013008,4013007
956,3012008,3012009,3013009,3013008,4012008,4012009,4013009,4013008
957,3012013,3012014,3013014,3013013,4012013,4012014,4013014,4013013
958,3012014,3012015,3013015,3013014,4012014,4012015,4013015,4013014
959,3012015,3012016,3013016,3013015,4012015,4012016,4013016,4013015
960,3012016,3012017,3013017,3013016,4012016,4012017,4013017,4013016
961,3012017,3012018,3013018,3013017,4012017,4012018,4013018,4013017
962,3012018,3012019,3013019,3013018,4012018,4012019,4013019,4013018
963,3012019,3012020,3013020,3013019,4012019,4012020,4013020,4013019
964,3012020,3012021,3013021,3013020,4012020,4012021,4013021,4013020
965,3013001,3013002,3014002,3014001,4013001,4013002,4014002,4014001
966,3013002,3013003,3014003,3014002,4013002,4013003,4014003,4014002
967,3013003,3013004,3014004,3014003,4013003,4013004,4014004,4014003
968,3013004,3013005,3014005,3014004,4013004,4013005,4014005,4014004
969,3013005,3013006,3014006,3014005,4013005,4013006,4014006,4014005
970,3013006,3013007,3014007,3014006,4013006,4013007,4014007,4014006
971,3013007,3013008,3014008,3014007,4013007,4013008,4014008,4014007
972,3013008,3013009,3014009,3014008,4013008,4013009,4014009,4014008
973,3013009,3013010,3014010,3014009,4013009,4013010,4014010,4014009
974,3013010,3013011,3014011,3014010,4013010,4013011,4014011,4014010
975,3013011,3013012,3014012,3014011,4013011,4013012,4014012,4014011
976,3013012,3013013,3014013,3014012,4013012,4013013,4014013,4014012
977,3013013,3013014,3014014,3014013,4013013,4013014,4014014,4014013
978,3013014,3013015,3014015,3014014,4013014,4013015,4014015,4014014
979,3013015,3013016,3014016,3014015,4013015,4013016,4014016,4014015
980,3013016,3013017,3014017,3014016,4013016,4013017,4014017,4014016
981,3013017,3013018,3014018,3014017,4013017,4013018,4014018,4014017
982,3013018,3013019,3014019,3014018,4013018,4013019,4014019,4014018
983,3013019,3013020,3014020,3014019,4013019,4013020,4014020,4014019
984,3013020,3013021,3014021,3014020,4013020,4013021,4014021,4014020
985,3014001,3014002,3015002,3015001,4014001,4014002,4015002,4015001
986,3014002,3014003,3015003,3015002,4014002,4014003,4015003,4015002
987,3014003,3014004,3015004,3015003,4014003,4014004,4015004,4015003
988,3014004,3014005,3015005,3015004,4014004,4014005,4015005,4015004
989,3014005,3014006,3015006,3015005,4014005,4014006,4015006,4015005
990,3014006,3014007,3015007,3015006,4014006,4014007,4015007,4015006
991,3014007,3014008,3015008,3015007,4014007,4014008,4015008,4015007
992,3014008,3014009,3015009,3015008,4014008,4014009,4015009,4015008
993,3014009,3014010,3015010,3015009,4014009,4014010,4015010,4015009
994,3014010,3014011,3015011,3015010,4014010,4014011,4015011,4015010
995,3014011,3014012,3015012,3015011,4014011,4014012,4015012,4015011
996,3014012,3014013,3015013,3015012,4014012,4014013,4015013,4015012
997,3014013,3014014,3015014,3015013,4014013,4014014,4015014,4015013
998,3014014,3014015,3015015,3015014,4014014,4014015,4015015,4015014
999,3014015,3014016,3015016,3015015,4014015,4014016,4015016,4015015
1000,3014016,3014017,3015017,3015016,4014016,4014017,4015017,4015016
1001,3014017,3014018,3015018,3015017,4014017,4014018,4015018,4015017
1002,3014018,3014019,3015019,3015018,4014018,4014019,4015019,4015018
1003,3014019,3014020,3015020,3015019,4014019,4014020,4015020,4015019
1004,3014020,3014021,3015021,3015020,4014020,4014021,4015021,4015020
1005,3015001,3015002,3016002,3016001,4015001,4015002,4016002,4016001
1006,3015002,3015003,3016003,3016002,4015002,4015003,4016003,4016002
1007,3015003,3015004,3016004,3016003,4015003,4015004,4016004,4016003
1008,3015004,3015005,3016005,3016004,4015004,4015005,4016005,4016004
1009,3015005,3015006,3016006,3016005,4015005,4015006,4016006,4016005
1010,3015006,3015007,3016007,3016006,4015006,4015007,4016007,4016006
1011,3015007,3015008,3016008,3016007,4015007,4015008,4016008,4016007
1012,3015008,3015009,3016009,3016008,4015008,4015009,4016009,4016008
1013,3015009,3015010,3016010,3016009,4015009,4015010,4016010,4016009
1014,3015010,3015011,3016011,3016010,4015010,4015011,4016011,4016010
1015,3015011,3015012,3016012,3016011,4015011,4015012,4016012,4016011
1016,3015012,3015013,3016013,3016012,4015012,4015013,4016013,4016012
1017,3015013,3015014,3016014,3016013,4015013,4015014,4016014,4016013
1018,3015014,3015015,3016015,3016014,4015014,4015015,4016015,4016014
1019,3015015,3015016,3016016,3016015,4015015,4015016,4016016,4016015
1020,3015016,3015017,3016017,3016016,4015016,4015017,4016017,4016016
1021,3015017,3015018,3016018,3016017,4015017,4015018,4016018,4016017
1022,3015018,3015019,3016019,3016018,4015018,4015019,4016019,4016018
1023,3015019,3015020,3016020,3016019,4015019,4015020,4016020,4016019
1024,3015020,3015021,3016021,3016020,4015020,4015021,4016021,4016020
1025,3016001,3016002,3017002,3017001,4016001,4016002,4017002,4017001
1026,3016002,3016003,3017003,3017002,4016002,4016003,4017003,4017002
1027,3016003,3016004,3017004,3017003,4016003,4016004,4017004,4017003
1028,3016004,3016005,3017005,3017004,4016004,4016005,4017005,4017004
1029,3016005,3016006,3017006,3017005,4016005,4016006,4017006,4017005
1030,3016006,3016007,3017007,3017006,4016006,4016007,4017007,4017006
1031,3016007,3016008,3017008,3017007,4016007,4016008,4017008,4017007
1032,3016008,3016009,3017009,3017008,4016008,4016009,4017009,4017008
1033,3016009,3016010,3017010,3017009,4016009,4016010,4017010,4017009
1034,3016010,3016011,3017011,3017010,4016010,4016011,4017011,4017010
1035,3016011,3016012,3017012,3017011,4016011,4016012,4017012,4017011
1036,3016012,3016013,3017013,3017012,4016012,4016013,4017013,4017012
1037,3016013,3016014,3017014,3017013,4016013,4016014,4017014,4017013
1038,3016014,3016015,3017015,3017014,4016014,4016015,4017015,4017014
1039,3016015,3016016,3017016,3017015,4016015,4016016,4017016,4017015
1040,3016016,3016017,3017017,3017016,4016016,4016017,4017017,4017016
1041,3016017,3016018,3017018,3017017,4016017,4016018,4017018,4017017
1042,3016018,3016019,3017019,3017018,4016018,4016019,4017019,4017018
1043,3016019,3016020,3017020,3017019,4016019,4016020,4017020,4017019
1044,3016020,3016021,3017021,3017020,4016020,4016021,4017021,4017020
1045,3017001,3017002,3018002,3018001,4017001,4017002,4018002,4018001
1046,3017002,3017003,3018003,3018002,4017002,4017003,4018003,4018002
1047,3017003,3017004,3018004,3018003,4017003,4017004,4018004,4018003
1048,3017004,3017005,3018005,3018004,4017004,4017005,4018005,4018004
1049,3017005,3017006,3018006,3018005,4017005,4017006,4018006,4018005
1050,3017006,3017007,3018007,3018006,4017006,4017007,4018007,4018006
1051,3017007,3017008,3018008,3018007,4017007,4017008,4018008,4018007
1052,3017008,3017009,3018009,3018008,4017008,4017009,4018009,4018008
1053,3017009,3017010,3018010,3018009,4017009,4017010,4018010,4018009
1054,3017010,3017011,3018011,3018010,4017010,4017011,4018011,4018010
1055,3017011,3017012,3018012,3018011,4017011,4017012,4018012,4018011
1056,3017012,3017013,3018013,3018012,4017012,4017013,4018013,4018012
1057,3017013,3017014,3018014,3018013,4017013,4017014,4018014,4018013
1058,3017014,3017015,3018015,3018014,4017014,4017015,4018015,4018014
1059,3017015,3017016,3018016,3018015,4017015,4017016,4018016,4018015
1060,3017016,3017017,3018017,3018016,4017016,4017017,4018017,4018016
1061,3017017,3017018,3018018,3018017,4017017,4017018,4018018,4018017
1062,3017018,3017019,3018019,3018018,4017018,4017019,4018019,4018018
1063,3017019,3017020,3018020,3018019,4017019,4017020,4018020,4018019
1064,3017020,3017021,3018021,3018020,4017020,4017021,4018021,4018020
1065,3018001,3018002,3019002,3019001,4018001,4018002,4019002,4019001
1066,3018002,3018003,3019003,3019002,4018002,4018003,4019003,4019002
1067,3018003,3018004,3019004,3019003,4018003,4018004,4019004,4019003
1068,3018004,3018005,3019005,3019004,4018004,4018005,4019005,4019004
1069,3018005,3018006,3019006,3019005,4018005,4018006,4019006,4019005
1070,3018006,3018007,3019007,3019006,4018006,4018007,4019007,4019006
1071,3018007,3018008,3019008,3019007,4018007,4018008,4019008,4019007
1072,3018008,3018009,3019009,3019008,4018008,4018009,4019009,4019008
1073,3018009,3018010,3019010,3019009,4018009,4018010,4019010,4019009
1074,3018010,3018011,3019011,3019010,4018010,4018011,4019011,4019010
1075,3018011,3018012,3019012,3019011,4018011,4018012,4019012,4019011
1076,3018012,3018013,3019013,3019012,4018012,4018013,4019013,4019012
1077,3018013,3018014,3019014,3019013,4018013,4018014,4019014,4019013
1078,3018014,3018015,3019015,3019014,4018014,4018015,4019015,4019014
1079,3018015,3018016,3019016,3019015,4018015,4018016,4019016,4019015
1080,3018016,3018017,3019017,3019016,4018016,4018017,4019017,4019016
1081,3018017,3018018,3019018,3019017,4018017,4018018,4019018,4019017
1082,3018018,3018019,3019019,3019018,4018018,4018019,4019019,4019018
1083,3018019,3018020,3019020,3019019,4018019,4018020,4019020,4019019
1084,3018020,3018021,3019021,3019020,4018020,4018021,4019021,4019020
1085,3019001,3019002,3020002,3020001,4019001,4019002,4020002,4020001
1086,3019002,3019003,3020003,3020002,4019002,4019003,4020003,4020002
1087,3019003,3019004,3020004,3020003,4019003,4019004,4020004,4020003
1088,3019004,3019005,3020005,3020004,4019004,4019005,4020005,4020004
1089,3019005,3019006,3020006,3020005,4019005,4019006,4020006,4020005
1090,3019006,3019007,3020007,3020006,4019006,4019007,4020007,4020006
1091,3019007,3019008,3020008,3020007,4019007,4019008,4020008,4020007
1092,3019008,3019009,3020009,3020008,4019008,4019009,4020009,4020008
1093,3019009,3019010,3020010,3020009,4019009,4019010,4020010,4020009
1094,3019010,3019011,3020011,3020010,4019010,4019011,4020011,4020010
1095,3019011,3019012,3020012,3020011,4019011,4019012,4020012,4020011
1096,3019012,3019013,3020013,3020012,4019012,4019013,4020013,4020012
1097,3019013,3019014,3020014,3020013,4019013,4019014,4020014,4020013
1098,3019014,3019015,3020015,3020014,4019014,4019015,4020015,4020014
1099,3019015,3019016,3020016,3020015,4019015,4019016,4020016,4020015
1100,3019016,3019017,3020017,3020016,4019016,4019017,4020017,4020016
1101,3019017,3019018,3020018,3020017,4019017,4019018,4020018,4020017
1102,3019018,3019019,3020019,3020018,4019018,4019019,4020019,4020018
1103,3019019,3019020,3020020,3020019,4019019,4019020,4020020,4020019
1104,3019020,3019021,3020021,3020020,4019020,4019021,4020021,4020020
1105,4000001,4000002,4001002,4001001,5000001,5000002,5001002,5001001
1106,4000002,4000003,4001003,4001002,5000002,5000003,5001003,5001002
1107,4000003,4000004,4001004,4001003,5000003,5000004,5001004,5001003
1108,4000004,4000005,4001005,4001004,5000004,5000005,5001005,5001004
1109,4000005,4000006,4001006,4001005,5000005,5000006,5001006,5001005
1110,4000006,4000007,4001007,4001006,5000006,5000007,5001007,5001006
1111,4000007,4000008,4001008,4001007,5000007,5000008,5001008,5001007
1112,4000008,4000009,4001009,4001008,5000008,5000009,5001009,5001008
1113,4000009,4000010,4001010,4001009,5000009,5000010,5001010,5001009
1114,4000010,4000011,4001011,4001010,5000010,5000011,5001011,5001010
1115,4000011,4000012,4001012,4001011,5000011,5000012,5001012,5001011
1116,4000012,4000013,4001013,4001012,5000012,5000013,5001013,5001012
1117,4000013,4000014,4001014,4001013,5000013,5000014,5001014,5001013
1118,4000014,4000015,4001015,4001014,5000014,5000015,5001015,5001014
1119,4000015,4000016,4001016,4001015,5000015,5000016,5001016,5001015
1120,4000016,4000017,4001017,4001016,5000016,5000017,5001017,5001016
1121,4000017,4000018,4001018,4001017,5000017,5000018,5001018,5001017
1122,4000018,4000019,4001019,4001018,5000018,5000019,5001019,5001018
1123,4000019,4000020,4001020,4001019,5000019,5000020,5001020,5001019
1124,4000020,4000021,4001021,4001020,5000020,5000021,5001021,5001020
1125,4001001,4001002,4002002,4002001,5001001,5001002,5002002,5002001
1126,4001002,4001003,4002003,4002002,5001002,5001003,5002003,5002002
1127,4001003,4001004,4002004,4002003,5001003,5001004,5002004,5002003
1128,4001004,4001005,4002005,4002004,5001004,5001005,5002005,5002004
1129,4001005,4001006,4002006,4002005,5001005,5001006,5002006,5002005
1130,4001006,4001007,4002007,4002006,5001006,5001007,5002007,5002006
1131,4001007,4001008,4002008,4002007,5001007,5001008,5002008,5002007
1132,4001008,4001009,4002009,4002008,5001008,5001009,5002009,5002008
1133,4001009,4001010,4002010,4002009,5001009,5001010,5002010,5002009
1134,4001010,4001011,4002011,4002010,5001010,5001011,5002011,5002010
1135,4001011,4001012,4002012,4002011,5001011,5001012,5002012,5002011
1136,4001012,4001013,4002013,4002012,5001012,5001013,5002013,5002012
1137,4001013,4001014,4002014,4002013,5001013,5001014,5002014,5002013
1138,4001014,4001015,4002015,4002014,5001014,5001015,5002015,5002014
1139,4001015,4001016,4002016,4002015,5001015,5001016,5002016,5002015
1140,4001016,4001017,4002017,4002016,5001016,5001017,5002017,5002016
1141,4001017,4001018,4002018,4002017,5001017,5001018,5002018,5002017
1142,4001018,4001019,4002019,4002018,5001018,5001019,5002019,5002018
1143,4001019,4001020,4002020,4002019,5001019,5001020,5002020,5002019
1144,4001020,4001021,4002021,4002020,5001020,5001021,5002021,5002020
1145,4002001,4002002,4003002,4003001,5002001,5002002,5003002,5003001
1146,4002002,4002003,4003003,4003002,5002002,5002003,5003003,5003002
1147,4002003,4002004,4003004,4003003,5002003,5002004,5003004,5003003
1148,4002004,4002005,4003005,4003004,5002004,5002005,5003005,5003004
1149,4002005,4002006,4003006,4003005,5002005,5002006,5003006,5003005
1150,4002006,4002007,4003007,4003006,5002006,5002007,5003007,5003006
1151,4002007,4002008,4003008,4003007,5002007,5002008,5003008,5003007
1152,4002008,4002009,4003009,4003008,5002008,5002009,5003009,5003008
1153,4002009,4002010,4003010,4003009,5002009,5002010,5003010,5003009
1154,4002010,4002011,4003011,4003010,5002010,5002011,5003011,5003010
1155,4002011,4002012,4003012,4003011,5002011,5002012,5003012,5003011
1156,4002012,4002013,4003013,4003012,5002012,5002013,5003013,5003012
1157,4002013,4002014,4003014,4003013,5002013,5002014,5003014,5003013
1158,4002014,4002015,4003015,4003014,5002014,5002015,5003015,5003014
1159,4002015,4002016,4003016,4003015,5002015,5002016,5003016,5003015
1160,4002016,4002017,4003017,4003016,5002016,5002017,5003017,5003016
1161,4002017,4002018,4003018,4003017,5002017,5002018,5003018,5003017
1162,4002018,4002019,4003019,4003018,5002018,5002019,5003019,5003018
1163,4002019,4002020,4003020,4003019,5002019,5002020,5003020,5003019
1164,4002020,4002021,4003021,4003020,5002020,5002021,5003021,5003020
1165,4003001,4003002,4004002,4004001,5003001,5003002,5004002,5004001
1166,4003002,4003003,4004003,4004002,5003002,5003003,5004003,5004002
1167,4003003,4003004,4004004,4004003,5003003,5003004,5004004,5004003
1168,4003004,4003005,4004005,4004004,5003004,5003005,5004005,5004004
1169,4003005,4003006,4004006,4004005,5003005,5003006,5004006,5004005
1170,4003006,4003007,4004007,4004006,5003006,5003007,5004007,5004006
1171,4003007,4003008,4004008,4004007,5003007,5003008,5004008,5004007
1172,4003008,4003009,4004009,4004008,5003008,5003009,5004009,5004008
1173,4003009,4003010,4004010,4004009,5003009,5003010,5004010,5004009
1174,4003010,4003011,4004011,4004010,5003010,5003011,5004011,5004010
1175,4003011,4003012,4004012,4004011,5003011,5003012,5004012,5004011
1176,4003012,4003013,4004013,4004012,5003012,5003013,5004013,5004012
1177,4003013,4003014,4004014,4004013,5003013,5003014,5004014,5004013
1178,4003014,4003015,4004015,4004014,5003014,5003015,5004015,5004014
1179,4003015,4003016,4004016,4004015,5003015,5003016,5004016,5004015
1180,4003016,4003017,4004017,4004016,5003016,5003017,5004017,5004016
1181,4003017,4003018,4004018,4004017,5003017,5003018,5004018,5004017
1182,4003018,4003019,4004019,4004018,5003018,5003019,5004019,5004018
1183,4003019,4003020,4004020,4004019,5003019,5003020,5004020,5004019
1184,4003020,4003021,4004021,4004020,5003020,5003021,5004021,5004020
1185,4004001,4004002,4005002,4005001,5004001,5004002,5005002,5005001
1186,4004002,4004003,4005003,4005002,5004002,5004003,5005003,5005002
1187,4004003,4004004,4005004,4005003,5004003,5004004,5005004,5005003
1188,4004004,4004005,4005005,4005004,5004004,5004005,5005005,5005004
1189,4004005,4004006,4005006,4005005,5004005,5004006,5005006,5005005
1190,4004006,4004007,4005007,4005006,5004006,5004007,5005007,5005006
1191,4004007,4004008,4005008,4005007,5004007,5004008,5005008,5005007
1192,4004008,4004009,4005009,4005008,5004008,5004009,5005009,5005008
1193,4004009,4004010,4005010,4005009,5004009,5004010,5005010,5005009
1194,4004010,4004011,4005011,4005010,5004010,5004011,5005011,5005010
1195,4004011,4004012,4005012,4005011,5004011,5004012,5005012,5005011
1196,4004012,4004013,4005013,4005012,5004012,5004013,5005013,5005012
1197,4004013,4004014,4005014,4005013,5004013,5004014,5005014,5005013
1198,4004014,4004015,4005015,4005014,5004014,5004015,5005015,5005014
1199,4004015,4004016,4005016,4005015,5004015,5004016,5005016,5005015
1200,4004016,4004017,4005017,4005016,5004016,5004017,5005017,5005016
1201,4004017,4004018,4005018,4005017,5004017,5004018,5005018,5005017
1202,4004018,4004019,4005019,4005018,5004018,5004019,5005019,5005018
1203,4004019,4004020,4005020,4005019,5004019,5004020,5005020,5005019
1204,4004020,4004021,4005021,4005020,5004020,5004021,5005021,5005020
1205,4005001,4005002,4006002,4006001,5005001,5005002,5006002,5006001
1206,4005002,4005003,4006003,4006002,5005002,5005003,5006003,5006002
1207,4005003,4005004,4006004,4006003,5005003,5005004,5006004,5006003
1208,4005004,4005005,4006005,4006004,5005004,5005005,5006005,5006004
1209,4005005,4005006,4006006,4006005,5005005,5005006,5006006,5006005
1210,4005006,4005007,4006007,4006006,5005006,5005007,5006007,5006006
1211,4005007,4005008,4006008,4006007,5005007,5005008,5006008,5006007
1212,4005008,4005009,4006009,4006008,5005008,5005009,5006009,5006008
1213,4005009,4005010,4006010,4006009,5005009,5005010,5006010,5006009
1214,4005010,4005011,4006011,4006010,5005010,5005011,5006011,5006010
1215,4005011,4005012,4006012,4006011,5005011,5005012,5006012,5006011
1216,4005012,4005013,4006013,4006012,5005012,5005013,5006013,5006012
1217,4005013,4005014,4006014,4006013,5005013,5005014,5006014,5006013
1218,4005014,4005015,4006015,4006014,5005014,5005015,5006015,5006014
1219,4005015,4005016,4006016,4006015,5005015,5005016,5006016,5006015
1220,4005016,4005017,4006017,4006016,5005016,5005017,5006017,5006016
1221,4005017,4005018,4006018,4006017,5005017,5005018,5006018,5006017
1222,4005018,4005019,4006019,4006018,5005018,5005019,5006019,5006018
1223,4005019,4005020,4006020,4006019,5005019,5005020,5006020,5006019
1224,4005020,4005021,4006021,4006020,5005020,5005021,5006021,5006020
1225,4006001,4006002,4007002,4007001,5006001,5006002,5007002,5007001
1226,4006002,4006003,4007003,4007002,5006002,5006003,5007003,5007002
1227,4006003,4006004,4007004,4007003,5006003,5006004,5007004,5007003
1228,4006004,4006005,4007005,4007004,5006004,5006005,5007005,5007004
1229,4006005,4006006,4007006,4007005,5006005,5006006,5007006,5007005
1230,4006006,4006007,4007007,4007006,5006006,5006007,5007007,5007006
1231,4006007,4006008,4007008,4007007,5006007,5006008,5007008,5007007
1232,4006008,4006009,4007009,4007008,5006008,5006009,5007009,5007008
1233,4006009,4006010,4007010,4007009,5006009,5006010,5007010,5007009
1234,4006010,4006011,4007011,4007010,5006010,5006011,5007011,5007010
1235,4006011,4006012,4007012,4007011,5006011,5006012,5007012,5007011
1236,4006012,4006013,4007013,4007012,5006012,5006013,5007013,5007012
1237,4006013,4006014,4007014,4007013,5006013,5006014,5007014,5007013
1238,4006014,4006015,4007015,4007014,5006014,5006015,5007015,5007014
1239,4006015,4006016,4007016,4007015,5006015,5006016,5007016,5007015
1240,4006016,4006017,4007017,4007016,5006016,5006017,5007017,5007016
1241,4006017,4006018,4007018,4007017,5006017,5006018,5007018,5007017
1242,4006018,4006019,4007019,4007018,5006018,5006019,5007019,5007018
1243,4006019,4006020,4007020,4007019,5006019,5006020,5007020,5007019
1244,4006020,4006021,4007021,4007020,5006020,5006021,5007021,5007020
1245,4007001,4007002,4008002,4008001,5007001,5007002,5008002,5008001
1246,4007002,4007003,4008003,4008002,5007002,5007003,5008003,5008002
1247,4007003,4007004,4008004,4008003,5007003,5007004,5008004,5008003
1248,4007004,4007005,4008005,4008004,5007004,5007005,5008005,5008004
1249,4007005,4007006,4008006,4008005,5007005,5007006,5008006,5008005
1250,4007006,4007007,4008007,4008006,5007006,5007007,5008007,5008006
1251,4007007,4007008,4008008,4008007,5007007,5007008,5008008,5008007
1252,4007008,4007009,4008009,4008008,5007008,5007009,5008009,5008008
1253,4007013,4007014,4008014,4008013,5007013,5007014,5008014,5008013
1254,4007014,4007015,4008015,4008014,5007014,5007015,5008015,5008014
1255,4007015,4007016,4008016,4008015,5007015,5007016,5008016,5008015
1256,4007016,4007017,4008017,4008016,5007016,5007017,5008017,5008016
1257,4007017,4007018,4008018,4008017,5007017,5007018,5008018,5008017
1258,4007018,4007019,4008019,4008018,5007018,5007019,5008019,5008018
1259,4007019,4007020,4008020,4008019,5007019,5007020,5008020,5008019
1260,4007020,4007021,4008021,4008020,5007020,5007021,5008021,5008020
1261,4008001,4008002,4009002,4009001,5008001,5008002,5009002,5009001
1262,4008002,4008003,4009003,4009002,5008002,5008003,5009003,5009002
1263,4008003,4008004,4009004,4009003,5008003,5008004,5009004,5009003
1264,4008004,4008005,4009005,4009004,5008004,5008005,5009005,5009004
1265,4008005,4008006,4009006,4009005,5008005,5008006,5009006,5009005
1266,4008006,4008007,4009007,4009006,5008006,5008007,5009007,5009006
1267,4008007,4008008,4009008,4009007,5008007,5008008,5009008,5009007
1268,4008014,4008015,4009015,4009014,5008014,5008015,5009015,5009014
1269,4008015,4008016,4009016,4009015,5008015,5008016,5009016,5009015
1270,4008016,4008017,4009017,4009016,5008016,5008017,5009017,5009016
1271,4008017,4008018,4009018,4009017,5008017,5008018,5009018,5009017
1272,4008018,4008019,4009019,4009018,5008018,5008019,5009019,5009018
1273,4008019,4008020,4009020,4009019,5008019,5008020,5009020,5009019
1274,4008020,4008021,4009021,4009020,5008020,5008021,5009021,5009020
1275,4009001,4009002,4010002,4010001,5009001,5009002,5010002,5010001
1276,4009002,4009003,4010003,4010002,5009002,5009003,5010003,5010002
1277,4009003,4009004,4010004,4010003,5009003,5009004,5010004,5010003
1278,4009004,4009005,4010005,4010004,5009004,5009005,5010005,5010004
1279,4009005,4009006,4010006,4010005,5009005,5009006,5010006,5010005
1280,4009006,4009007,4010007,4010006,5009006,5009007,5010007,5010006
1281,4009007,4009008,4010008,4010007,5009007,5009008,5010008,5010007
1282,4009014,4009015,4010015,4010014,5009014,5009015,5010015,5010014
1283,4009015,4009016,4010016,4010015,5009015,5009016,5010016,5010015
1284,4009016,4009017,4010017,4010016,5009016,5009017,5010017,5010016
1285,4009017,4009018,4010018,4010017,5009017,5009018,5010018,5010017
1286,4009018,4009019,4010019,4010018,5009018,5009019,5010019,5010018
1287,4009019,4009020,4010020,4010019,5009019,5009020,5010020,5010019
1288,4009020,4009021,4010021,4010020,5009020,5009021,5010021,5010020
1289,4010001,4010002,4011002,4011001,5010001,5010002,5011002,5011001
1290,4010002,4010003,4011003,4011002,5010002,5010003,5011003,5011002
1291,4010003,4010004,4011004,4011003,5010003,5010004,5011004,5011003
1292,4010004,4010005,4011005,4011004,5010004,5010005,5011005,5011004
1293,4010005,4010006,4011006,4011005,5010005,5010006,5011006,5011005
1294,4010006,4010007,4011007,4011006,5010006,5010007,5011007,5011006
1295,4010007,4010008,4011008,4011007,5010007,5010008,5011008,5011007
1296,4010014,4010015,4011015,4011014,5010014,5010015,5011015,5011014
1297,4010015,4010016,4011016,4011015,5010015,5010016,5011016,5011015
1298,4010016,4010017,4011017,4011016,5010016,5010017,5011017,5011016
1299,4010017,4010018,4011018,4011017,5010017,5010018,5011018,5011017
1300,4010018,4010019,4011019,4011018,5010018,5010019,5011019,5011018
1301,4010019,4010020,4011020,4011019,5010019,5010020,5011020,5011019
1302,4010020,4010021,4011021,4011020,5010020,5010021,5011021,5011020
1303,4011001,4011002,4012002,4012001,5011001,5011002,5012002,5012001
1304,4011002,4011003,4012003,4012002,5011002,5011003,5012003,5012002
1305,4011003,4011004,4012004,4012003,5011003,5011004,5012004,5012003
1306,4011004,4011005,4012005,4012004,5011004,5011005,5012005,5012004
1307,4011005,4011006,4012006,4012005,5011005,5011006,5012006,5012005
1308,4011006,4011007,4012007,4012006,5011006,5011007,5012007,5012006
1309,4011007,4011008,4012008,4012007,5011007,5011008,5012008,5012007
1310,4011014,4011015,4012015,4012014,5011014,5011015,5012015,5012014
1311,4011015,4011016,4012016,4012015,5011015,5011016,5012016,5012015
1312,4011016,4011017,4012017,4012016,5011016,5011017,5012017,5012016
1313,4011017,4011018,4012018,4012017,5011017,5011018,5012018,5012017
1314,4011018,4011019,4012019,4012018,5011018,5011019,5012019,5012018
1315,4011019,4011020,4012020,4012019,5011019,5011020,5012020,5012019
1316,4011020,4011021,4012021,4012020,5011020,5011021,5012021,5012020
1317,4012001,4012002,4013002,4013001,5012001,5012002,5013002,5013001
1318,4012002,4012003,4013003,4013002,5012002,5012003,5013003,5013002
1319,4012003,4012004,4013004,4013003,5012003,5012004,5013004,5013003
1320,4012004,4012005,4013005,4013004,5012004,5012005,5013005,5013004
1321,4012005,4012006,4013006,4013005,5012005,5012006,5013006,5013005
1322,4012006,4012007,4013007,4013006,5012006,5012007,5013007,5013006
1323,4012007,4012008,4013008,4013007,5012007,5012008,5013008,5013007
1324,4012008,4012009,4013009,4013008,5012008,5012009,5013009,5013008
1325,4012013,4012014,4013014,4013013,5012013,5012014,5013014,5013013
1326,4012014,4012015,4013015,4013014,5012014,5012015,5013015,5013014
1327,4012015,4012016,4013016,4013015,5012015,5012016,5013016,5013015
1328,4012016,4012017,4013017,4013016,5012016,5012017,5013017,5013016
1329,4012017,4012018,4013018,4013017,5012017,5012018,5013018,5013017
1330,4012018,4012019,4013019,4013018,5012018,5012019,5013019,5013018
1331,4012019,4012020,4013020,4013019,5012019,5012020,5013020,5013019
1332,4012020,4012021,4013021,4013020,5012020,5012021,5013021,5013020
1333,4013001,4013002,4014002,4014001,5013001,5013002,5014002,5014001
1334,4013002,4013003,4014003,4014002,5013002,5013003,5014003,5014002
1335,4013003,4013004,4014004,4014003,5013003,5013004,5014004,5014003
1336,4013004,4013005,4014005,4014004,5013004,5013005,5014005,5014004
1337,4013005,4013006,4014006,4014005,5013005,5013006,5014006,5014005
1338,4013006,4013007,4014007,4014006,5013006,5013007,5014007,5014006
1339,4013007,4013008,4014008,4014007,5013007,5013008,5014008,5014007
1340,4013008,4013009,4014009,4014008,5013008,5013009,5014009,5014008
1341,4013009,4013010,4014010,4014009,5013009,5013010,5014010,5014009
1342,4013010,4013011,4014011,4014010,5013010,5013011,5014011,5014010
1343,4013011,4013012,4014012,4014011,5013011,5013012,5014012,5014011
1344,4013012,4013013,4014013,4014012,5013012,5013013,5014013,5014012
1345,4013013,4013014,4014014,4014013,5013013,5013014,5014014,5014013
1346,4013014,4013015,4014015,4014014,5013014,5013015,5014015,5014014
1347,4013015,4013016,4014016,4014015,5013015,5013016,5014016,5014015
1348,4013016,4013017,4014017,4014016,5013016,5013017,5014017,5014016
1349,4013017,4013018,4014018,4014017,5013017,5013018,5014018,5014017
1350,4013018,4013019,4014019,4014018,5013018,5013019,5014019,5014018
1351,4013019,4013020,4014020,4014019,5013019,5013020,5014020,5014019
1352,4013020,4013021,4014021,4014020,5013020,5013021,5014021,5014020
1353,4014001,4014002,4015002,4015001,5014001,5014002,5015002,5015001
1354,4014002,4014003,4015003,4015002,5014002,5014003,5015003,5015002
1355,4014003,4014004,4015004,4015003,5014003,5014004,5015004,5015003
1356,4014004,4014005,4015005,4015004,5014004,5014005,5015005,5015004
1357,4014005,4014006,4015006,4015005,5014005,5014006,5015006,5015005
1358,4014006,4014007,4015007,4015006,5014006,5014007,5015007,5015006
1359,4014007,4014008,4015008,4015007,5014007,5014008,5015008,5015007
1360,4014008,4014009,4015009,4015008,5014008,5014009,5015009,5015008
1361,4014009,4014010,4015010,4015009,5014009,5014010,5015010,5015009
1362,4014010,4014011,4015011,4015010,5014010,5014011,5015011,5015010
1363,4014011,4014012,4015012,4015011,5014011,5014012,5015012,5015011
1364,4014012,4014013,4015013,4015012,5014012,5014013,5015013,5015012
1365,4014013,4014014,4015014,4015013,5014013,5014014,5015014,5015013
1366,4014014,4014015,4015015,4015014,5014014,5014015,5015015,5015014
1367,4014015,4014016,4015016,4015015,5014015,5014016,5015016,5015015
1368,4014016,4014017,4015017,4015016,5014016,5014017,5015017,5015016
1369,4014017,4014018,4015018,4015017,5014017,5014018,5015018,5015017
1370,4014018,4014019,4015019,4015018,5014018,5014019,5015019,5015018
1371,4014019,4014020,4015020,4015019,5014019,5014020,5015020,5015019
1372,4014020,4014021,4015021,4015020,5014020,5014021,5015021,5015020
1373,4015001,4015002,4016002,4016001,5015001,5015002,5016002,5016001
1374,4015002,4015003,4016003,4016002,5015002,5015003,5016003,5016002
1375,4015003,4015004,4016004,4016003,5015003,5015004,5016004,5016003
1376,4015004,4015005,4016005,4016004,5015004,5015005,5016005,5016004
1377,4015005,4015006,4016006,4016005,5015005,5015006,5016006,5016005
1378,4015006,4015007,4016007,4016006,5015006,5015007,5016007,5016006
1379,4015007,4015008,4016008,4016007,5015007,5015008,5016008,5016007
1380,4015008,4015009,4016009,4016008,5015008,5015009,5016009,5016008
1381,4015009,4015010,4016010,4016009,5015009,5015010,5016010,5016009
1382,4015010,4015011,4016011,4016010,5015010,5015011,5016011,5016010
1383,4015011,4015012,4016012,4016011,5015011,5015012,5016012,5016011
1384,4015012,4015013,4016013,4016012,5015012,5015013,5016013,5016012
1385,4015013,4015014,4016014,4016013,5015013,5015014,5016014,5016013
1386,4015014,4015015,4016015,4016014,5015014,5015015,5016015,5016014
1387,4015015,4015016,4016016,4016015,5015015,5015016,5016016,5016015
1388,4015016,4015017,4016017,4016016,5015016,5015017,5016017,5016016
1389,4015017,4015018,4016018,4016017,5015017,5015018,5016018,5016017
1390,4015018,4015019,4016019,4016018,5015018,5015019,5016019,5016018
1391,4015019,4015020,4016020,4016019,5015019,5015020,5016020,5016019
1392,4015020,4015021,4016021,4016020,5015020,5015021,5016021,5016020
1393,4016001,4016002,4017002,4017001,5016001,5016002,5017002,5017001
1394,4016002,4016003,4017003,4017002,5016002,5016003,5017003,5017002
1395,4016003,4016004,4017004,4017003,5016003,5016004,5017004,5017003
1396,4016004,4016005,4017005,4017004,5016004,5016005,5017005,5017004
1397,4016005,4016006,4017006,4017005,5016005,5016006,5017006,5017005
1398,4016006,4016007,4017007,4017006,5016006,5016007,5017007,5017006
1399,4016007,4016008,4017008,4017007,5016007,5016008,5017008,5017007
1400,4016008,4016009,4017009,4017008,5016008,5016009,5017009,5017008
1401,4016009,4016010,4017010,4017009,5016009,5016010,5017010,5017009
1402,4016010,4016011,4017011,4017010,5016010,5016011,5017011,5017010
1403,4016011,4016012,4017012,4017011,5016011,5016012,5017012,5017011
1404,4016012,4016013,4017013,4017012,5016012,5016013,5017013,5017012
1405,4016013,4016014,4017014,4017013,5016013,5016014,5017014,5017013
1406,4016014,4016015,4017015,4017014,5016014,5016015,5017015,5017014
1407,4016015,4016016,4017016,4017015,5016015,5016016,5017016,5017015
1408,4016016,4016017,4017017,4017016,5016016,5016017,5017017,5017016
1409,4016017,4016018,4017018,4017017,5016017,5016018,5017018,5017017
1410,4016018,4016019,4017019,4017018,5016018,5016019,5017019,5017018
1411,4016019,4016020,4017020,4017019,5016019,5016020,5017020,5017019
1412,4016020,4016021,4017021,4017020,5016020,5016021,5017021,5017020
1413,4017001,4017002,4018002,4018001,5017001,5017002,5018002,5018001
1414,4017002,4017003,4018003,4018002,5017002,5017003,5018003,5018002
1415,4017003,4017004,4018004,4018003,5017003,5017004,5018004,5018003
1416,4017004,4017005,4018005,4018004,5017004,5017005,5018005,5018004
1417,4017005,4017006,4018006,4018005,5017005,5017006,5018006,5018005
1418,4017006,4017007,4018007,4018006,5017006,5017007,5018007,5018006
1419,4017007,4017008,4018008,4018007,5017007,5017008,5018008,5018007
1420,4017008,4017009,4018009,4018008,5017008,5017009,5018009,5018008
1421,4017009,4017010,4018010,4018009,5017009,5017010,5018010,5018009
1422,4017010,4017011,4018011,4018010,5017010,5017011,5018011,5018010
1423,4017011,4017012,4018012,4018011,5017011,5017012,5018012,5018011
1424,4017012,4017013,4018013,4018012,5017012,5017013,5018013,5018012
1425,4017013,4017014,4018014,4018013,5017013,5017014,5018014,5018013
1426,4017014,4017015,4018015,4018014,5017014,5017015,5018015,5018014
1427,4017015,4017016,4018016,4018015,5017015,5017016,5018016,5018015
1428,4017016,4017017,4018017,4018016,5017016,5017017,5018017,5018016
1429,4017017,4017018,4018018,4018017,5017017,5017018,5018018,5018017
1430,4017018,4017019,4018019,4018018,5017018,5017019,5018019,5018018
1431,4017019,4017020,4018020,4018019,5017019,5017020,5018020,5018019
1432,4017020,4017021,4018021,4018020,5017020,5017021,5018021,5018020
1433,4018001,4018002,4019002,4019001,5018001,5018002,5019002,5019001
1434,4018002,4018003,4019003,4019002,5018002,5018003,5019003,5019002
1435,4018003,4018004,4019004,4019003,5018003,5018004,5019004,5019003
1436,4018004,4018005,4019005,4019004,5018004,5018005,5019005,5019004
1437,4018005,4018006,4019006,4019005,5018005,5018006,5019006,5019005
1438,4018006,4018007,4019007,4019006,5018006,5018007,5019007,5019006
1439,4018007,4018008,4019008,4019007,5018007,5018008,5019008,5019007
1440,4018008,4018009,4019009,4019008,5018008,5018009,5019009,5019008
1441,4018009,4018010,4019010,4019009,5018009,5018010,5019010,5019009
1442,4018010,4018011,4019011,4019010,5018010,5018011,5019011,5019010
1443,4018011,4018012,4019012,4019011,5018011,5018012,5019012,5019011
1444,4018012,4018013,4019013,4019012,5018012,5018013,5019013,5019012
1445,4018013,4018014,4019014,4019013,5018013,5018014,5019014,5019013
1446,4018014,4018015,4019015,4019014,5018014,5018015,5019015,5019014
1447,4018015,4018016,4019016,4019015,5018015,5018016,5019016,5019015
1448,4018016,4018017,4019017,4019016,5018016,5018017,5019017,5019016
1449,4018017,4018018,4019018,4019017,5018017,5018018,5019018,5019017
1450,4018018,4018019,4019019,4019018,5018018,5018019,5019019,5019018
1451,4018019,4018020,4019020,4019019,5018019,5018020,5019020,5019019
1452,4018020,4018021,4019021,4019020,5018020,5018021,5019021,5019020
1453,4019001,4019002,4020002,4020001,5019001,5019002,5020002,5020001
1454,4019002,4019003,4020003,4020002,5019002,5019003,5020003,5020002
1455,4019003,4019004,4020004,4020003,5019003,5019004,5020004,5020003
1456,4019004,4019005,4020005,4020004,5019004,5019005,5020005,5020004
1457,4019005,4019006,4020006,4020005,5019005,5019006,5020006,5020005
1458,4019006,4019007,4020007,4020006,5019006,5019007,5020007,5020006
1459,4019007,4019008,4020008,4020007,5019007,5019008,5020008,5020007
1460,4019008,4019009,4020009,4020008,5019008,5019009,5020009,5020008
1461,4019009,4019010,4020010,4020009,5019009,5019010,5020010,5020009
1462,4019010,4019011,4020011,4020010,5019010,5019011,5020011,5020010
1463,4019011,4019012,4020012,4020011,5019011,5019012,5020012,5020011
1464,4019012,4019013,4020013,4020012,5019012,5019013,5020013,5020012
1465,4019013,4019014,4020014,4020013,5019013,5019014,5020014,5020013
1466,4019014,4019015,4020015,4020014,5019014,5019015,5020015,5020014
1467,4019015,4019016,4020016,4020015,5019015,5019016,5020016,5020015
1468,4019016,4019017,4020017,4020016,5019016,5019017,5020017,5020016
1469,4019017,4019018,4020018,4020017,5019017,5019018,5020018,5020017
1470,4019018,4019019,4020019,4020018,5019018,5019019,5020019,5020018
1471,4019019,4019020,4020020,4020019,5019019,5019020,5020020,5020019
1472,4019020,4019021,4020021,4020020,5019020,5019021,5020021,5020020
1473,6000001,6000002,6001002,6001001,7000001,7000002,7001002,7001001
1474,6000002,6000003,6001003,6001002,7000002,7000003,7001003,7001002
1475,6000003,6000004,6001004,6001003,7000003,7000004,7001004,7001003
1476,6000004,6000005,6001005,6001004,7000004,7000005,7001005,7001004
1477,6000005,6000006,6001006,6001005,7000005,7000006,7001006,7001005
1478,6000006,6000007,6001007,6001006,7000006,7000007,7001007,7001006
1479,6000007,6000008,6001008,6001007,7000007,7000008,7001008,7001007
1480,6000008,6000009,6001009,6001008,7000008,7000009,7001009,7001008
1481,6000009,6000010,6001010,6001009,7000009,7000010,7001010,7001009
1482,6000010,6000011,6001011,6001010,7000010,7000011,7001011,7001010
1483,6000011,6000012,6001012,6001011,7000011,7000012,7001012,7001011
1484,6000012,6000013,6001013,6001012,7000012,7000013,7001013,7001012
1485,6000013,6000014,6001014,6001013,7000013,7000014,7001014,7001013
1486,6000014,6000015,6001015,6001014,7000014,7000015,7001015,7001014
1487,6000015,6000016,6001016,6001015,7000015,7000016,7001016,7001015
1488,6000016,6000017,6001017,6001016,7000016,7000017,7001017,7001016
1489,6000017,6000018,6001018,6001017,7000017,7000018,7001018,7001017
1490,6000018,6000019,6001019,6001018,7000018,7000019,7001019,7001018
1491,6000019,6000020,6001020,6001019,7000019,7000020,7001020,7001019
1492,6000020,6000021,6001021,6001020,7000020,7000021,7001021,7001020
1493,6001001,6001002,6002002,6002001,7001001,7001002,7002002,7002001
1494,6001002,6001003,6002003,6002002,7001002,7001003,7002003,7002002
1495,6001003,6001004,6002004,6002003,7001003,7001004,7002004,7002003
1496,6001004,6001005,6002005,6002004,7001004,7001005,7002005,7002004
1497,6001005,6001006,6002006,6002005,7001005,7001006,7002006,7002005
1498,6001006,6001007,6002007,6002006,7001006,7001007,7002007,7002006
1499,6001007,6001008,6002008,6002007,7001007,7001008,7002008,7002007
1500,6001008,6001009,6002009,6002008,7001008,7001009,7002009,7002008
1501,6001009,6001010,6002010,6002009,7001009,7001010,7002010,7002009
1502,6001010,6001011,6002011,6002010,7001010,7001011,7002011,7002010
1503,6001011,6001012,6002012,6002011,7001011,7001012,7002012,7002011
1504,6001012,6001013,6002013,6002012,7001012,7001013,7002013,7002012
1505,6001013,6001014,6002014,6002013,7001013,7001014,7002014,7002013
1506,6001014,6001015,6002015,6002014,7001014,7001015,7002015,7002014
1507,6001015,6001016,6002016,6002015,7001015,7001016,7002016,7002015
1508,6001016,6001017,6002017,6002016,7001016,7001017,7002017,7002016
1509,6001017,6001018,6002018,6002017,7001017,7001018,7002018,7002017
1510,6001018,6001019,6002019,6002018,7001018,7001019,7002019,7002018
1511,6001019,6001020,6002020,6002019,7001019,7001020,7002020,7002019
1512,6001020,6001021,6002021,6002020,7001020,7001021,7002021,7002020
1513,6002001,6002002,6003002,6003001,7002001,7002002,7003002,7003001
1514,6002002,6002003,6003003,6003002,7002002,7002003,7003003,7003002
1515,6002003,6002004,6003004,6003003,7002003,7002004,7003004,7003003
1516,6002004,6002005,6003005,6003004,7002004,7002005,7003005,7003004
1517,6002005,6002006,6003006,6003005,7002005,7002006,7003006,7003005
1518,6002006,6002007,6003007,6003006,7002006,7002007,7003007,7003006
1519,6002007,6002008,6003008,6003007,7002007,7002008,7003008,7003007
1520,6002008,6002009,6003009,6003008,7002008,7002009,7003009,7003008
1521,6002009,6002010,6003010,6003009,7002009,7002010,7003010,7003009
1522,6002010,6002011,6003011,6003010,7002010,7002011,7003011,7003010
1523,6002011,6002012,6003012,6003011,7002011,7002012,7003012,7003011
1524,6002012,6002013,6003013,6003012,7002012,7002013,7003013,7003012
1525,6002013,6002014,6003014,6003013,7002013,7002014,7003014,7003013
1526,6002014,6002015,6003015,6003014,7002014,7002015,7003015,7003014
1527,6002015,6002016,6003016,6003015,7002015,7002016,7003016,7003015
1528,6002016,6002017,6003017,6003016,7002016,7002017,7003017,7003016
1529,6002017,6002018,6003018,6003017,7002017,7002018,7003018,7003017
1530,6002018,6002019,6003019,6003018,7002018,7002019,7003019,7003018
1531,6002019,6002020,6003020,6003019,7002019,7002020,7003020,7003019
1532,6002020,6002021,6003021,6003020,7002020,7002021,7003021,7003020
1533,6003001,6003002,6004002,6004001,7003001,7003002,7004002,7004001
1534,6003002,6003003,6004003,6004002,7003002,7003003,7004003,7004002
1535,6003003,6003004,6004004,6004003,7003003,7003004,7004004,7004003
1536,6003004,6003005,6004005,6004004,7003004,7003005,7004005,7004004
1537,6003005,6003006,6004006,6004005,7003005,7003006,7004006,7004005
1538,6003006,6003007,6004007,6004006,7003006,7003007,7004007,7004006
1539,6003007,6003008,6004008,6004007,7003007,7003008,7004008,7004007
1540,6003008,6003009,6004009,6004008,7003008,7003009,7004009,7004008
1541,6003013,6003014,6004014,6004013,7003013,7003014,7004014,7004013
1542,6003014,6003015,6004015,6004014,7003014,7003015,7004015,7004014
1543,6003015,6003016,6004016,6004015,7003015,7003016,7004016,7004015
1544,6003016,6003017,6004017,6004016,7003016,7003017,7004017,7004016
1545,6003017,6003018,6004018,6004017,7003017,7003018,7004018,7004017
1546,6003018,6003019,6004019,6004018,7003018,7003019,7004019,7004018
1547,6003019,6003020,6004020,6004019,7003019,7003020,7004020,7004019
1548,6003020,6003021,6004021,6004020,7003020,7003021,7004021,7004020
1549,6004001,6004002,6005002,6005001,7004001,7004002,7005002,7005001
1550,6004002,6004003,6005003,6005002,7004002,7004003,7005003,7005002
1551,6004003,6004004,6005004,6005003,7004003,7004004,7005004,7005003
1552,6004004,6004005,6005005,6005004,7004004,7004005,7005005,7005004
1553,6004005,6004006,6005006,6005005,7004005,7004006,7005006,7005005
1554,6004006,6004007,6005007,6005006,7004006,7004007,7005007,7005006
1555,6004015,6004016,6005016,6005015,7004015,7004016,7005016,7005015
1556,6004016,6004017,6005017,6005016,7004016,7004017,7005017,7005016
1557,6004017,6004018,6005018,6005017,7004017,7004018,7005018,7005017
1558,6004018,6004019,6005019,6005018,7004018,7004019,7005019,7005018
1559,6004019,6004020,6005020,6005019,7004019,7004020,7005020,7005019
1560,6004020,6004021,6005021,6005020,7004020,7004021,7005021,7005020
1561,6005001,6005002,6006002,6006001,7005001,7005002,7006002,7006001
1562,6005002,6005003,6006003,6006002,7005002,7005003,7006003,7006002
1563,6005003,6005004,6006004,6006003,7005003,7005004,7006004,7006003
1564,6005004,6005005,6006005,6006004,7005004,7005005,7006005,7006004
1565,6005005,6005006,6006006,6006005,7005005,7005006,7006006,7006005
1566,6005016,6005017,6006017,6006016,7005016,7005017,7006017,7006016
1567,6005017,6005018,6006018,6006017,7005017,7005018,7006018,7006017
1568,6005018,6005019,6006019,6006018,7005018,7005019,7006019,7006018
1569,6005019,6005020,6006020,6006019,7005019,7005020,7006020,7006019
1570,6005020,6005021,6006021,6006020,7005020,7005021,7006021,7006020
1571,6006001,6006002,6007002,6007001,7006001,7006002,7007002,7007001
1572,6006002,6006003,6007003,6007002,7006002,7006003,7007003,7007002
1573,6006003,6006004,6007004,6007003,7006003,7006004,7007004,7007003
1574,6006004,6006005,6007005,6007004,7006004,7006005,7007005,7007004
1575,6006017,6006018,6007018,6007017,7006017,7006018,7007018,7007017
1576,6006018,6006019,6007019,6007018,7006018,7006019,7007019,7007018
1577,6006019,6006020,6007020,6007019,7006019,7006020,7007020,7007019
1578,6006020,6006021,6007021,6007020,7006020,7006021,7007021,7007020
1579,6007001,6007002,6008002,6008001,7007001,7007002,7008002,7008001
1580,6007002,6007003,6008003,6008002,7007002,7007003,7008003,7008002
1581,6007003,6007004,6008004,6008003,7007003,7007004,7008004,7008003
1582,6007004,6007005,6008005,6008004,7007004,7007005,7008005,7008004
1583,6007017,6007018,6008018,6008017,7007017,7007018,7008018,7008017
1584,6007018,6007019,6008019,6008018,7007018,7007019,7008019,7008018
1585,6007019,6007020,6008020,6008019,7007019,7007020,7008020,7008019
1586,6007020,6007021,6008021,6008020,7007020,7007021,7008021,7008020
1587,6008001,6008002,6009002,6009001,7008001,7008002,7009002,7009001
1588,6008002,6008003,6009003,6009002,7008002,7008003,7009003,7009002
1589,6008003,6008004,6009004,6009003,7008003,7008004,7009004,7009003
1590,6008018,6008019,6009019,6009018,7008018,7008019,7009019,7009018
1591,6008019,6008020,6009020,6009019,7008019,7008020,7009020,7009019
1592,6008020,6008021,6009021,6009020,7008020,7008021,7009021,7009020
1593,6009001,6009002,6010002,6010001,7009001,7009002,7010002,7010001
1594,6009002,6009003,6010003,6010002,7009002,7009003,7010003,7010002
1595,6009003,6009004,6010004,6010003,7009003,7009004,7010004,7010003
1596,6009018,6009019,6010019,6010018,7009018,7009019,7010019,7010018
1597,6009019,6009020,6010020,6010019,7009019,7009020,7010020,7010019
1598,6009020,6009021,6010021,6010020,7009020,7009021,7010021,7010020
1599,6010001,6010002,6011002,6011001,7010001,7010002,7011002,7011001
1600,6010002,6010003,6011003,6011002,7010002,7010003,7011003,7011002
1601,6010003,6010004,6011004,6011003,7010003,7010004,7011004,7011003
1602,6010018,6010019,6011019,6011018,7010018,7010019,7011019,7011018
1603,6010019,6010020,6011020,6011019,7010019,7010020,7011020,7011019
1604,6010020,6010021,6011021,6011020,7010020,7010021,7011021,7011020
1605,6011001,6011002,6012002,6012001,7011001,7011002,7012002,7012001
1606,6011002,6011003,6012003,6012002,7011002,7011003,7012003,7012002
1607,6011003,6011004,6012004,6012003,7011003,7011004,7012004,7012003
1608,6011018,6011019,6012019,6012018,7011018,7011019,7012019,7012018
1609,6011019,6011020,6012020,6012019,7011019,7011020,7012020,7012019
1610,6011020,6011021,6012021,6012020,7011020,7011021,7012021,7012020
1611,6012001,6012002,6013002,6013001,7012001,7012002,7013002,7013001
1612,6012002,6012003,6013003,6013002,7012002,7012003,7013003,7013002
1613,6012003,6012004,6013004,6013003,7012003,7012004,7013004,7013003
1614,6012004,6012005,6013005,6013004,7012004,7012005,7013005,7013004
1615,6012017,6012018,6013018,6013017,7012017,7012018,7013018,7013017
1616,6012018,6012019,6013019,6013018,7012018,7012019,7013019,7013018
1617,6012019,6012020,6013020,6013019,7012019,7012020,7013020,7013019
1618,6012020,6012021,6013021,6013020,7012020,7012021,7013021,7013020
1619,6013001,6013002,6014002,6014001,7013001,7013002,7014002,7014001
1620,6013002,6013003,6014003,6014002,7013002,7013003,7014003,7014002
1621,6013003,6013004,6014004,6014003,7013003,7013004,7014004,7014003
1622,6013004,6013005,6014005,6014004,7013004,7013005,7014005,7014004
1623,6013017,6013018,6014018,6014017,7013017,7013018,7014018,7014017
1624,6013018,6013019,6014019,6014018,7013018,7013019,7014019,7014018
1625,6013019,6013020,6014020,6014019,7013019,7013020,7014020,7014019
1626,6013020,6013021,6014021,6014020,7013020,7013021,7014021,7014020
1627,6014001,6014002,6015002,6015001,7014001,7014002,7015002,7015001
1628,6014002,6014003,6015003,6015002,7014002,7014003,7015003,7015002
1629,6014003,6014004,6015004,6015003,7014003,7014004,7015004,7015003
1630,6014004,6014005,6015005,6015004,7014004,7014005,7015005,7015004
1631,6014005,6014006,6015006,6015005,7014005,7014006,7015006,7015005
1632,6014016,6014017,6015017,6015016,7014016,7014017,7015017,7015016
1633,6014017,6014018,6015018,6015017,7014017,7014018,7015018,7015017
1634,6014018,6014019,6015019,6015018,7014018,7014019,7015019,7015018
1635,6014019,6014020,6015020,6015019,7014019,7014020,7015020,7015019
1636,6014020,6014021,6015021,6015020,7014020,7014021,7015021,7015020
1637,6015001,6015002,6016002,6016001,7015001,7015002,7016002,7016001
1638,6015002,6015003,6016003,6016002,7015002,7015003,7016003,7016002
1639,6015003,6015004,6016004,6016003,7015003,7015004,7016004,7016003
1640,6015004,6015005,6016005,6016004,7015004,7015005,7016005,7016004
1641,6015005,6015006,6016006,6016005,7015005,7015006,7016006,7016005
1642,6015006,6015007,6016007,6016006,7015006,7015007,7016007,7016006
1643,6015015,6015016,6016016,6016015,7015015,7015016,7016016,7016015
1644,6015016,6015017,6016017,6016016,7015016,7015017,7016017,7016016
1645,6015017,6015018,6016018,6016017,7015017,7015018,7016018,7016017
1646,6015018,6015019,6016019,6016018,7015018,7015019,7016019,7016018
1647,6015019,6015020,6016020,6016019,7015019,7015020,7016020,7016019
1648,6015020,6015021,6016021,6016020,7015020,7015021,7016021,7016020
1649,6016001,6016002,6017002,6017001,7016001,7016002,7017002,7017001
1650,6016002,6016003,6017003,6017002,7016002,7016003,7017003,7017002
1651,6016003,6016004,6017004,6017003,7016003,7016004,7017004,7017003
1652,6016004,6016005,6017005,6017004,7016004,7016005,7017005,7017004
1653,6016005,6016006,6017006,6017005,7016005,7016006,7017006,7017005
1654,6016006,6016007,6017007,6017006,7016006,7016007,7017007,7017006
1655,6016007,6016008,6017008,6017007,7016007,7016008,7017008,7017007
1656,6016008,6016009,6017009,6017008,7016008,7016009,7017009,7017008
1657,6016013,6016014,6017014,6017013,7016013,7016014,7017014,7017013
1658,6016014,6016015,6017015,6017014,7016014,7016015,7017015,7017014
1659,6016015,6016016,6017016,6017015,7016015,7016016,7017016,7017015
1660,6016016,6016017,6017017,6017016,7016016,7016017,7017017,7017016
1661,6016017,6016018,6017018,6017017,7016017,7016018,7017018,7017017
1662,6016018,6016019,6017019,6017018,7016018,7016019,7017019,7017018
1663,6016019,6016020,6017020,6017019,7016019,7016020,7017020,7017019
1664,6016020,6016021,6017021,6017020,7016020,7016021,7017021,7017020
1665,6017001,6017002,6018002,6018001,7017001,7017002,7018002,7018001
1666,6017002,6017003,6018003,6018002,7017002,7017003,7018003,7018002
1667,6017003,6017004,6018004,6018003,7017003,7017004,7018004,7018003
1668,6017004,6017005,6018005,6018004,7017004,7017005,7018005,7018004
1669,6017005,6017006,6018006,6018005,7017005,7017006,7018006,7018005
1670,6017006,6017007,6018007,6018006,7017006,7017007,7018007,7018006
1671,6017007,6017008,6018008,6018007,7017007,7017008,7018008,7018007
1672,6017008,6017009,6018009,6018008,7017008,7017009,7018009,7018008
1673,6017009,6017010,6018010,6018009,7017009,7017010,7018010,7018009
1674,6017010,6017011,6018011,6018010,7017010,7017011,7018011,7018010
1675,6017011,6017012,6018012,6018011,7017011,7017012,7018012,7018011
1676,6017012,6017013,6018013,6018012,7017012,7017013,7018013,7018012
1677,6017013,6017014,6018014,6018013,7017013,7017014,7018014,7018013
1678,6017014,6017015,6018015,6018014,7017014,7017015,7018015,7018014
1679,6017015,6017016,6018016,6018015,7017015,7017016,7018016,7018015
1680,6017016,6017017,6018017,6018016,7017016,7017017,7018017,7018016
1681,6017017,6017018,6018018,6018017,7017017,7017018,7018018,7018017
1682,6017018,6017019,6018019,6018018,7017018,7017019,7018019,7018018
1683,6017019,6017020,6018020,6018019,7017019,7017020,7018020,7018019
1684,6017020,6017021,6018021,6018020,7017020,7017021,7018021,7018020
1685,6018001,6018002,6019002,6019001,7018001,7018002,7019002,7019001
1686,6018002,6018003,6019003,6019002,7018002,7018003,7019003,7019002
1687,6018003,6018004,6019004,6019003,7018003,7018004,7019004,7019003
1688,6018004,6018005,6019005,6019004,7018004,7018005,7019005,7019004
1689,6018005,6018006,6019006,6019005,7018005,7018006,7019006,7019005
1690,6018006,6018007,6019007,6019006,7018006,7018007,7019007,7019006
1691,6018007,6018008,6019008,6019007,7018007,7018008,7019008,7019007
1692,6018008,6018009,6019009,6019008,7018008,7018009,7019009,7019008
1693,6018009,6018010,6019010,6019009,7018009,7018010,7019010,7019009
1694,6018010,6018011,6019011,6019010,7018010,7018011,7019011,7019010
1695,6018011,6018012,6019012,6019011,7018011,7018012,7019012,7019011
1696,6018012,6018013,6019013,6019012,7018012,7018013,7019013,7019012
1697,6018013,6018014,6019014,6019013,7018013,7018014,7019014,7019013
1698,6018014,6018015,6019015,6019014,7018014,7018015,7019015,7019014
1699,6018015,6018016,6019016,6019015,7018015,7018016,7019016,7019015
1700,6018016,6018017,6019017,6019016,7018016,7018017,7019017,7019016
1701,6018017,6018018,6019018,6019017,7018017,7018018,7019018,7019017
1702,6018018,6018019,6019019,6019018,7018018,7018019,7019019,7019018
1703,6018019,6018020,6019020,6019019,7018019,7018020,7019020,7019019
1704,6018020,6018021,6019021,6019020,7018020,7018021,7019021,7019020
1705,6019001,6019002,6020002,6020001,7019001,7019002,7020002,7020001
1706,6019002,6019003,6020003,6020002,7019002,7019003,7020003,7020002
1707,6019003,6019004,6020004,6020003,7019003,7019004,7020004,7020003
1708,6019004,6019005,6020005,6020004,7019004,7019005,7020005,7020004
1709,6019005,6019006,6020006,6020005,7019005,7019006,7020006,7020005
1710,6019006,6019007,6020007,6020006,7019006,7019007,7020007,7020006
1711,6019007,6019008,6020008,6020007,7019007,7019008,7020008,7020007
1712,6019008,6019009,6020009,6020008,7019008,7019009,7020009,7020008
1713,6019009,6019010,6020010,6020009,7019009,7019010,7020010,7020009
1714,6019010,6019011,6020011,6020010,7019010,7019011,7020011,7020010
1715,6019011,6019012,6020012,6020011,7019011,7019012,7020012,7020011
1716,6019012,6019013,6020013,6020012,7019012,7019013,7020013,7020012
1717,6019013,6019014,6020014,6020013,7019013,7019014,7020014,7020013
1718,6019014,6019015,6020015,6020014,7019014,7019015,7020015,7020014
1719,6019015,6019016,6020016,6020015,7019015,7019016,7020016,7020015
1720,6019016,6019017,6020017,6020016,7019016,7019017,7020017,7020016
1721,6019017,6019018,6020018,6020017,7019017,7019018,7020018,7020017
1722,6019018,6019019,6020019,6020018,7019018,7019019,7020019,7020018
1723,6019019,6019020,6020020,6020019,7019019,7019020,7020020,7020019
1724,6019020,6019021,6020021,6020020,7019020,7019021,7020021,7020020
1725,7000001,7000002,7001002,7001001,8000001,8000002,8001002,8001001
1726,7000002,7000003,7001003,7001002,8000002,8000003,8001003,8001002
1727,7000003,7000004,7001004,7001003,8000003,8000004,8001004,8001003
1728,7000004,7000005,7001005,7001004,8000004,8000005,8001005,8001004
1729,7000005,7000006,7001006,7001005,8000005,8000006,8001006,8001005
1730,7000006,7000007,7001007,7001006,8000006,8000007,8001007,8001006
1731,7000007,7000008,7001008,7001007,8000007,8000008,8001008,8001007
1732,7000008,7000009,7001009,7001008,8000008,8000009,8001009,8001008
1733,7000009,7000010,7001010,7001009,8000009,8000010,8001010,8001009
1734,7000010,7000011,7001011,7001010,8000010,8000011,8001011,8001010
1735,7000011,7000012,7001012,7001011,8000011,8000012,8001012,8001011
1736,7000012,7000013,7001013,7001012,8000012,8000013,8001013,8001012
1737,7000013,7000014,7001014,7001013,8000013,8000014,8001014,8001013
1738,7000014,7000015,7001015,7001014,8000014,8000015,8001015,8001014
1739,7000015,7000016,7001016,7001015,8000015,8000016,8001016,8001015
1740,7000016,7000017,7001017,7001016,8000016,8000017,8001017,8001016
1741,7000017,7000018,7001018,7001017,8000017,8000018,8001018,8001017
1742,7000018,7000019,7001019,7001018,8000018,8000019,8001019,8001018
1743,7000019,7000020,7001020,7001019,8000019,8000020,8001020,8001019
1744,7000020,7000021,7001021,7001020,8000020,8000021,8001021,8001020
1745,7001001,7001002,7002002,7002001,8001001,8001002,8002002,8002001
1746,7001002,7001003,7002003,7002002,8001002,8001003,8002003,8002002
1747,7001003,7001004,7002004,7002003,8001003,8001004,8002004,8002003
1748,7001004,7001005,7002005,7002004,8001004,8001005,8002005,8002004
1749,7001005,7001006,7002006,7002005,8001005,8001006,8002006,8002005
1750,7001006,7001007,7002007,7002006,8001006,8001007,8002007,8002006
1751,7001007,7001008,7002008,7002007,8001007,8001008,8002008,8002007
1752,7001008,7001009,7002009,7002008,8001008,8001009,8002009,8002008
1753,7001009,7001010,7002010,7002009,8001009,8001010,8002010,8002009
1754,7001010,7001011,7002011,7002010,8001010,8001011,8002011,8002010
1755,7001011,7001012,7002012,7002011,8001011,8001012,8002012,8002011
1756,7001012,7001013,7002013,7002012,8001012,8001013,8002013,8002012
1757,7001013,7001014,7002014,7002013,8001013,8001014,8002014,8002013
1758,7001014,7001015,7002015,7002014,8001014,8001015,8002015,8002014
1759,7001015,7001016,7002016,7002015,8001015,8001016,8002016,8002015
1760,7001016,7001017,7002017,7002016,8001016,8001017,8002017,8002016
1761,7001017,7001018,7002018,7002017,8001017,8001018,8002018,8002017
1762,7001018,7001019,7002019,7002018,8001018,8001019,8002019,8002018
1763,7001019,7001020,7002020,7002019,8001019,8001020,8002020,8002019
1764,7001020,7001021,7002021,7002020,8001020,8001021,8002021,8002020
1765,7002001,7002002,7003002,7003001,8002001,8002002,8003002,8003001
1766,7002002,7002003,7003003,7003002,8002002,8002003,8003003,8003002
1767,7002003,7002004,7003004,7003003,8002003,8002004,8003004,8003003
1768,7002004,7002005,7003005,7003004,8002004,8002005,8003005,8003004
1769,7002005,7002006,7003006,7003005,8002005,8002006,8003006,8003005
1770,7002006,7002007,7003007,7003006,8002006,8002007,8003007,8003006
1771,7002007,7002008,7003008,7003007,8002007,8002008,8003008,8003007
1772,7002008,7002009,7003009,7003008,8002008,8002009,8003009,8003008
1773,7002009,7002010,7003010,7003009,8002009,8002010,8003010,8003009
1774,7002010,7002011,7003011,7003010,8002010,8002011,8003011,8003010
1775,7002011,7002012,7003012,7003011,8002011,8002012,8003012,8003011
1776,7002012,7002013,7003013,7003012,8002012,8002013,8003013,8003012
1777,7002013,7002014,7003014,7003013,8002013,8002014,8003014,8003013
1778,7002014,7002015,7003015,7003014,8002014,8002015,8003015,8003014
1779,7002015,7002016,7003016,7003015,8002015,8002016,8003016,8003015
1780,7002016,7002017,7003017,7003016,8002016,8002017,8003017,8003016
1781,7002017,7002018,7003018,7003017,8002017,8002018,8003018,8003017
1782,7002018,7002019,7003019,7003018,8002018,8002019,8003019,8003018
1783,7002019,7002020,7003020,7003019,8002019,8002020,8003020,8003019
1784,7002020,7002021,7003021,7003020,8002020,8002021,8003021,8003020
1785,7003001,7003002,7004002,7004001,8003001,8003002,8004002,8004001
1786,7003002,7003003,7004003,7004002,8003002,8003003,8004003,8004002
1787,7003003,7003004,7004004,7004003,8003003,8003004,8004004,8004003
1788,7003004,7003005,7004005,7004004,8003004,8003005,8004005,8004004
1789,7003005,7003006,7004006,7004005,8003005,8003006,8004006,8004005
1790,7003006,7003007,7004007,7004006,8003006,8003007,8004007,8004006
1791,7003007,7003008,7004008,7004007,8003007,8003008,8004008,8004007
1792,7003008,7003009,7004009,7004008,8003008,8003009,8004009,8004008
1793,7003013,7003014,7004014,7004013,8003013,8003014,8004014,8004013
1794,7003014,7003015,7004015,7004014,8003014,8003015,8004015,8004014
1795,7003015,7003016,7004016,7004015,8003015,8003016,8004016,8004015
1796,7003016,7003017,7004017,7004016,8003016,8003017,8004017,8004016
1797,7003017,7003018,7004018,7004017,8003017,8003018,8004018,8004017
1798,7003018,7003019,7004019,7004018,8003018,8003019,8004019,8004018
1799,7003019,7003020,7004020,7004019,8003019,8003020,8004020,8004019
1800,7003020,7003021,7004021,7004020,8003020,8003021,8004021,8004020
1801,7004001,7004002,7005002,7005001,8004001,8004002,8005002,8005001
1802,7004002,7004003,7005003,7005002,8004002,8004003,8005003,8005002
1803,7004003,7004004,7005004,7005003,8004003,8004004,8005004,8005003
1804,7004004,7004005,7005005,7005004,8004004,8004005,8005005,8005004
1805,7004005,7004006,7005006,7005005,8004005,8004006,8005006,8005005
1806,7004006,7004007,7005007,7005006,8004006,8004007,8005007,8005006
1807,7004015,7004016,7005016,7005015,8004015,8004016,8005016,8005015
1808,7004016,7004017,7005017,7005016,8004016,8004017,8005017,8005016
1809,7004017,7004018,7005018,7005017,8004017,8004018,8005018,8005017
1810,7004018,7004019,7005019,7005018,8004018,8004019,8005019,8005018
1811,7004019,7004020,7005020,7005019,8004019,8004020,8005020,8005019
1812,7004020,7004021,7005021,7005020,8004020,8004021,8005021,8005020
1813,7005001,7005002,7006002,7006001,8005001,8005002,8006002,8006001
1814,7005002,7005003,7006003,7006002,8005002,8005003,8006003,8006002
1815,7005003,7005004,7006004,7006003,8005003,8005004,8006004,8006003
1816,7005004,7005005,7006005,7006004,8005004,8005005,8006005,8006004
1817,7005005,7005006,7006006,7006005,8005005,8005006,8006006,8006005
1818,7005016,7005017,7006017,7006016,8005016,8005017,8006017,8006016
1819,7005017,7005018,7006018,7006017,8005017,8005018,8006018,8006017
1820,7005018,7005019,7006019,7006018,8005018,8005019,8006019,8006018
1821,7005019,7005020,7006020,7006019,8005019,8005020,8006020,8006019
1822,7005020,7005021,7006021,7006020,8005020,8005021,8006021,8006020
1823,7006001,7006002,7007002,7007001,8006001,8006002,8007002,8007001
1824,7006002,7006003,7007003,7007002,8006002,8006003,8007003,8007002
1825,7006003,7006004,7007004,7007003,8006003,8006004,8007004,8007003
1826,7006004,7006005,7007005,7007004,8006004,8006005,8007005,8007004
1827,7006017,7006018,7007018,7007017,8006017,8006018,8007018,8007017
1828,7006018,7006019,7007019,7007018,8006018,8006019,8007019,8007018
1829,7006019,7006020,7007020,7007019,8006019,8006020,8007020,8007019
1830,7006020,7006021,7007021,7007020,8006020,8006021,8007021,8007020
1831,7007001,7007002,7008002,7008001,8007001,8007002,8008002,8008001
1832,7007002,7007003,7008003,7008002,8007002,8007003,8008003,8008002
1833,7007003,7007004,7008004,7008003,8007003,8007004,8008004,8008003
1834,7007004,7007005,7008005,7008004,8007004,8007005,8008005,8008004
1835,7007017,7007018,7008018,7008017,8007017,8007018,8008018,8008017
1836,7007018,7007019,7008019,7008018,8007018,8007019,8008019,8008018
1837,7007019,7007020,7008020,7008019,8007019,8007020,8008020,8008019
1838,7007020,7007021,7008021,7008020,8007020,8007021,8008021,8008020
1839,7008001,7008002,7009002,7009001,8008001,8008002,8009002,8009001
1840,7008002,7008003,7009003,7009002,8008002,8008003,8009003,8009002
1841,7008003,7008004,7009004,7009003,8008003,8008004,8009004,8009003
1842,7008018,7008019,7009019,7009018,8008018,8008019,8009019,8009018
1843,7008019,7008020,7009020,7009019,8008019,8008020,8009020,8009019
1844,7008020,7008021,7009021,7009020,8008020,8008021,8009021,8009020
1845,7009001,7009002,7010002,7010001,8009001,8009002,8010002,8010001
1846,7009002,7009003,7010003,7010002,8009002,8009003,8010003,8010002
1847,7009003,7009004,7010004,7010003,8009003,8009004,8010004,8010003
1848,7009018,7009019,7010019,7010018,8009018,8009019,8010019,8010018
1849,7009019,7009020,7010020,7010019,8009019,8009020,8010020,8010019
1850,7009020,7009021,7010021,7010020,8009020,8009021,8010021,8010020
1851,7010001,7010002,7011002,7011001,8010001,8010002,8011002,8011001
1852,7010002,7010003,7011003,7011002,8010002,8010003,8011003,8011002
1853,7010003,7010004,7011004,7011003,8010003,8010004,8011004,8011003
1854,7010018,7010019,7011019,7011018,8010018,8010019,8011019,8011018
1855,7010019,7010020,7011020,7011019,8010019,8010020,8011020,8011019
1856,7010020,7010021,7011021,7011020,8010020,8010021,8011021,8011020
1857,7011001,7011002,7012002,7012001,8011001,8011002,8012002,8012001
1858,7011002,7011003,7012003,7012002,8011002,8011003,8012003,8012002
1859,7011003,7011004,7012004,7012003,8011003,8011004,8012004,8012003
1860,7011018,7011019,7012019,7012018,8011018,8011019,8012019,8012018
1861,7011019,7011020,7012020,7012019,8011019,8011020,8012020,8012019
1862,7011020,7011021,7012021,7012020,8011020,8011021,8012021,8012020
1863,7012001,7012002,7013002,7013001,8012001,8012002,8013002,8013001
1864,7012002,7012003,7013003,7013002,8012002,8012003,8013003,8013002
1865,7012003,7012004,7013004,7013003,8012003,8012004,8013004,8013003
1866,7012004,7012005,7013005,7013004,8012004,8012005,8013005,8013004
1867,7012017,7012018,7013018,7013017,8012017,8012018,8013018,8013017
1868,7012018,7012019,7013019,7013018,8012018,8012019,8013019,8013018
1869,7012019,7012020,7013020,7013019,8012019,8012020,8013020,8013019
1870,7012020,7012021,7013021,7013020,8012020,8012021,8013021,8013020
1871,7013001,7013002,7014002,7014001,8013001,8013002,8014002,8014001
1872,7013002,7013003,7014003,7014002,8013002,8013003,8014003,8014002
1873,7013003,7013004,7014004,7014003,8013003,8013004,8014004,8014003
1874,7013004,7013005,7014005,7014004,8013004,8013005,8014005,8014004
1875,7013017,7013018,7014018,7014017,8013017,8013018,8014018,8014017
1876,7013018,7013019,7014019,7014018,8013018,8013019,8014019,8014018
1877,7013019,7013020,7014020,7014019,8013019,8013020,8014020,8014019
1878,7013020,7013021,7014021,7014020,8013020,8013021,8014021,8014020
1879,7014001,7014002,7015002,7015001,8014001,8014002,8015002,8015001
1880,7014002,7014003,7015003,7015002,8014002,8014003,8015003,8015002
1881,7014003,7014004,7015004,7015003,8014003,8014004,8015004,8015003
1882,7014004,7014005,7015005,7015004,8014004,8014005,8015005,8015004
1883,7014005,7014006,7015006,7015005,8014005,8014006,8015006,8015005
1884,7014016,7014017,7015017,7015016,8014016,8014017,8015017,8015016
1885,7014017,7014018,7015018,7015017,8014017,8014018,8015018,8015017
1886,7014018,7014019,7015019,7015018,8014018,8014019,8015019,8015018
1887,7014019,7014020,7015020,7015019,8014019,8014020,8015020,8015019
1888,7014020,7014021,7015021,7015020,8014020,8014021,8015021,8015020
1889,7015001,7015002,7016002,7016001,8015001,8015002,8016002,8016001
1890,7015002,7015003,7016003,7016002,8015002,8015003,8016003,8016002
1891,7015003,7015004,7016004,7016003,8015003,8015004,8016004,8016003
1892,7015004,7015005,7016005,7016004,8015004,8015005,8016005,8016004
1893,7015005,7015006,7016006,7016005,8015005,8015006,8016006,8016005
1894,7015006,7015007,7016007,7016006,8015006,8015007,8016007,8016006
1895,7015015,7015016,7016016,7016015,8015015,8015016,8016016,8016015
1896,7015016,7015017,7016017,7016016,8015016,8015017,8016017,8016016
1897,7015017,7015018,7016018,7016017,8015017,8015018,8016018,8016017
1898,7015018,7015019,7016019,7016018,8015018,8015019,8016019,8016018
1899,7015019,7015020,7016020,7016019,8015019,8015020,8016020,8016019
1900,7015020,7015021,7016021,7016020,8015020,8015021,8016021,8016020
1901,7016001,7016002,7017002,7017001,8016001,8016002,8017002,8017001
1902,7016002,7016003,7017003,7017002,8016002,8016003,8017003,8017002
1903,7016003,7016004,7017004,7017003,8016003,8016004,8017004,8017003
1904,7016004,7016005,7017005,7017004,8016004,8016005,8017005,8017004
1905,7016005,7016006,7017006,7017005,8016005,8016006,8017006,8017005
1906,7016006,7016007,7017007,7017006,8016006,8016007,8017007,8017006
1907,7016007,7016008,7017008,7017007,8016007,8016008,8017008,8017007
1908,7016008,7016009,7017009,7017008,8016008,8016009,8017009,8017008
1909,7016013,7016014,7017014,7017013,8016013,8016014,8017014,8017013
1910,7016014,7016015,7017015,7017014,8016014,8016015,8017015,8017014
1911,7016015,7016016,7017016,7017015,8016015,8016016,8017016,8017015
1912,7016016,7016017,7017017,7017016,8016016,8016017,8017017,8017016
1913,7016017,7016018,7017018,7017017,8016017,8016018,8017018,8017017
1914,7016018,7016019,7017019,7017018,8016018,8016019,8017019,8017018
1915,7016019,7016020,7017020,7017019,8016019,8016020,8017020,8017019
1916,7016020,7016021,7017021,7017020,8016020,8016021,8017021,8017020
1917,7017001,7017002,7018002,7018001,8017001,8017002,8018002,8018001
1918,7017002,7017003,7018003,7018002,8017002,8017003,8018003,8018002
1919,7017003,7017004,7018004,7018003,8017003,8017004,8018004,8018003
1920,7017004,7017005,7018005,7018004,8017004,8017005,8018005,8018004
1921,7017005,7017006,7018006,7018005,8017005,8017006,8018006,8018005
1922,7017006,7017007,7018007,7018006,8017006,8017007,8018007,8018006
1923,7017007,7017008,7018008,7018007,8017007,8017008,8018008,8018007
1924,7017008,7017009,7018009,7018008,8017008,8017009,8018009,8018008
1925,7017009,7017010,7018010,7018009,8017009,8017010,8018010,8018009
1926,7017010,7017011,7018011,7018010,8017010,8017011,8018011,8018010
1927,7017011,7017012,7018012,7018011,8017011,8017012,8018012,8018011
1928,7017012,7017013,7018013,7018012,8017012,8017013,8018013,8018012
1929,7017013,7017014,7018014,7018013,8017013,8017014,8018014,8018013
1930,7017014,7017015,7018015,7018014,8017014,8017015,8018015,8018014
1931,7017015,7017016,7018016,7018015,8017015,8017016,8018016,8018015
1932,7017016,7017017,7018017,7018016,8017016,8017017,8018017,8018016
1933,7017017,7017018,7018018,7018017,8017017,8017018,8018018,8018017
1934,7017018,7017019,7018019,7018018,8017018,8017019,8018019,8018018
1935,7017019,7017020,7018020,7018019,8017019,8017020,8018020,8018019
1936,7017020,7017021,7018021,7018020,8017020,8017021,8018021,8018020
1937,7018001,7018002,7019002,7019001,8018001,8018002,8019002,8019001
1938,7018002,7018003,7019003,7019002,8018002,8018003,8019003,8019002
1939,7018003,7018004,7019004,7019003,8018003,8018004,8019004,8019003
1940,7018004,7018005,7019005,7019004,8018004,8018005,8019005,8019004
1941,7018005,7018006,7019006,7019005,8018005,8018006,8019006,8019005
1942,7018006,7018007,7019007,7019006,8018006,8018007,8019007,8019006
1943,7018007,7018008,7019008,7019007,8018007,8018008,8019008,8019007
1944,7018008,7018009,7019009,7019008,8018008,8018009,8019009,8019008
1945,7018009,7018010,7019010,7019009,8018009,8018010,8019010,8019009
1946,7018010,7018011,7019011,7019010,8018010,8018011,8019011,8019010
1947,7018011,7018012,7019012,7019011,8018011,8018012,8019012,8019011
1948,7018012,7018013,7019013,7019012,8018012,8018013,8019013,8019012
1949,7018013,7018014,7019014,7019013,8018013,8018014,8019014,8019013
1950,7018014,7018015,7019015,7019014,8018014,8018015,8019015,8019014
1951,7018015,7018016,7019016,7019015,8018015,8018016,8019016,8019015
1952,7018016,7018017,7019017,7019016,8018016,8018017,8019017,8019016
1953,7018017,7018018,7019018,7019017,8018017,8018018,8019018,8019017
1954,7018018,7018019,7019019,7019018,8018018,8018019,8019019,8019018
1955,7018019,7018020,7019020,7019019,8018019,8018020,8019020,8019019
1956,7018020,7018021,7019021,7019020,8018020,8018021,8019021,8019020
1957,7019001,7019002,7020002,7020001,8019001,8019002,8020002,8020001
1958,7019002,7019003,7020003,7020002,8019002,8019003,8020003,8020002
1959,7019003,7019004,7020004,7020003,8019003,8019004,8020004,8020003
1960,7019004,7019005,7020005,7020004,8019004,8019005,8020005,8020004
1961,7019005,7019006,7020006,7020005,8019005,8019006,8020006,8020005
1962,7019006,7019007,7020007,7020006,8019006,8019007,8020007,8020006
1963,7019007,7019008,7020008,7020007,8019007,8019008,8020008,8020007
1964,7019008,7019009,7020009,7020008,8019008,8019009,8020009,8020008
1965,7019009,7019010,7020010,7020009,8019009,8019010,8020010,8020009
1966,7019010,7019011,7020011,7020010,8019010,8019011,8020011,8020010
1967,7019011,7019012,7020012,7020011,8019011,8019012,8020012,8020011
1968,7019012,7019013,7020013,7020012,8019012,8019013,8020013,8020012
1969,7019013,7019014,7020014,7020013,8019013,8019014,8020014,8020013
1970,7019014,7019015,7020015,7020014,8019014,8019015,8020015,8020014
1971,7019015,7019016,7020016,7020015,8019015,8019016,8020016,8020015
1972,7019016,7019017,7020017,7020016,8019016,8019017,8020017,8020016
1973,7019017,7019018,7020018,7020017,8019017,8019018,8020018,8020017
1974,7019018,7019019,7020019,7020018,8019018,8019019,8020019,8020018
1975,7019019,7019020,7020020,7020019,8019019,8019020,8020020,8020019
1976,7019020,7019021,7020021,7020020,8019020,8019021,8020021,8020020
1977,8000001,8000002,8001002,8001001,9000001,9000002,9001002,9001001
1978,8000002,8000003,8001003,8001002,9000002,9000003,9001003,9001002
1979,8000003,8000004,8001004,8001003,9000003,9000004,9001004,9001003
1980,8000004,8000005,8001005,8001004,9000004,9000005,9001005,9001004
1981,8000005,8000006,8001006,8001005,9000005,9000006,9001006,9001005
1982,8000006,8000007,8001007,8001006,9000006,9000007,9001007,9001006
1983,8000007,8000008,8001008,8001007,9000007,9000008,9001008,9001007
1984,8000008,8000009,8001009,8001008,9000008,9000009,9001009,9001008
1985,8000009,8000010,8001010,8001009,9000009,9000010,9001010,9001009
1986,8000010,8000011,8001011,8001010,9000010,9000011,9001011,9001010
1987,8000011,8000012,8001012,8001011,9000011,9000012,9001012,9001011
1988,8000012,8000013,8001013,8001012,9000012,9000013,9001013,9001012
1989,8000013,8000014,8001014,8001013,9000013,9000014,9001014,9001013
1990,8000014,8000015,8001015,8001014,9000014,9000015,9001015,9001014
1991,8000015,8000016,8001016,8001015,9000015,9000016,9001016,9001015
1992,8000016,8000017,8001017,8001016,9000016,9000017,9001017,9001016
1993,8000017,8000018,8001018,8001017,9000017,9000018,9001018,9001017
1994,8000018,8000019,8001019,8001018,9000018,9000019,9001019,9001018
1995,8000019,8000020,8001020,8001019,9000019,9000020,9001020,9001019
1996,8000020,8000021,8001021,8001020,9000020,9000021,9001021,9001020
1997,8001001,8001002,8002002,8002001,9001001,9001002,9002002,9002001
1998,8001002,8001003,8002003,8002002,9001002,9001003,9002003,9002002
1999,8001003,8001004,8002004,8002003,9001003,9001004,9002004,9002003
2000,8001004,8001005,8002005,8002004,9001004,9001005,9002005,9002004
2001,8001005,8001006,8002006,8002005,9001005,9001006,9002006,9002005
2002,8001006,8001007,8002007,8002006,9001006,9001007,9002007,9002006
2003,8001007,8001008,8002008,8002007,9001007,9001008,9002008,9002007
2004,8001008,8001009,8002009,8002008,9001008,9001009,9002009,9002008
2005,8001009,8001010,8002010,8002009,9001009,9001010,9002010,9002009
2006,8001010,8001011,8002011,8002010,9001010,9001011,9002011,9002010
2007,8001011,8001012,8002012,8002011,9001011,9001012,9002012,9002011
2008,8001012,8001013,8002013,8002012,9001012,9001013,9002013,9002012
2009,8001013,8001014,8002014,8002013,9001013,9001014,9002014,9002013
2010,8001014,8001015,8002015,8002014,9001014,9001015,9002015,9002014
2011,8001015,8001016,8002016,8002015,9001015,9001016,9002016,9002015
2012,8001016,8001017,8002017,8002016,9001016,9001017,9002017,9002016
2013,8001017,8001018,8002018,8002017,9001017,9001018,9002018,9002017
2014,8001018,8001019,8002019,8002018,9001018,9001019,9002019,9002018
2015,8001019,8001020,8002020,8002019,9001019,9001020,9002020,9002019
2016,8001020,8001021,8002021,8002020,9001020,9001021,9002021,9002020
2017,8002001,8002002,8003002,8003001,9002001,9002002,9003002,9003001
2018,8002002,8002003,8003003,8003002,9002002,9002003,9003003,9003002
2019,8002003,8002004,8003004,8003003,9002003,9002004,9003004,9003003
2020,8002004,8002005,8003005,8003004,9002004,9002005,9003005,9003004
2021,8002005,8002006,8003006,8003005,9002005,9002006,9003006,9003005
2022,8002006,8002007,8003007,8003006,9002006,9002007,9003007,9003006
2023,8002007,8002008,8003008,8003007,9002007,9002008,9003008,9003007
2024,8002008,8002009,8003009,8003008,9002008,9002009,9003009,9003008
2025,8002009,8002010,8003010,8003009,9002009,9002010,9003010,9003009
2026,8002010,8002011,8003011,8003010,9002010,9002011,9003011,9003010
2027,8002011,8002012,8003012,8003011,9002011,9002012,9003012,9003011
2028,8002012,8002013,8003013,8003012,9002012,9002013,9003013,9003012
2029,8002013,8002014,8003014,8003013,9002013,9002014,9003014,9003013
2030,8002014,8002015,8003015,8003014,9002014,9002015,9003015,9003014
2031,8002015,8002016,8003016,8003015,9002015,9002016,9003016,9003015
2032,8002016,8002017,8003017,8003016,9002016,9002017,9003017,9003016
2033,8002017,8002018,8003018,8003017,9002017,9002018,9003018,9003017
2034,8002018,8002019,8003019,8003018,9002018,9002019,9003019,9003018
2035,8002019,8002020,8003020,8003019,9002019,9002020,9003020,9003019
2036,8002020,8002021,8003021,8003020,9002020,9002021,9003021,9003020
2037,8003001,8003002,8004002,8004001,9003001,9003002,9004002,9004001
2038,8003002,8003003,8004003,8004002,9003002,9003003,9004003,9004002
2039,8003003,8003004,8004004,8004003,9003003,9003004,9004004,9004003
2040,8003004,8003005,8004005,8004004,9003004,9003005,9004005,9004004
2041,8003005,8003006,8004006,8004005,9003005,9003006,9004006,9004005
2042,8003006,8003007,8004007,8004006,9003006,9003007,9004007,9004006
2043,8003007,8003008,8004008,8004007,9003007,9003008,9004008,9004007
2044,8003008,8003009,8004009,8004008,9003008,9003009,9004009,9004008
2045,8003013,8003014,8004014,8004013,9003013,9003014,9004014,9004013
2046,8003014,8003015,8004015,8004014,9003014,9003015,9004015,9004014
2047,8003015,8003016,8004016,8004015,9003015,9003016,9004016,9004015
2048,8003016,8003017,8004017,8004016,9003016,9003017,9004017,9004016
2049,8003017,8003018,8004018,8004017,9003017,9003018,9004018,9004017
2050,8003018,8003019,8004019,8004018,9003018,9003019,9004019,9004018
2051,8003019,8003020,8004020,8004019,9003019,9003020,9004020,9004019
2052,8003020,8003021,8004021,8004020,9003020,9003021,9004021,9004020
2053,8004001,8004002,8005002,8005001,9004001,9004002,9005002,9005001
2054,8004002,8004003,8005003,8005002,9004002,9004003,9005003,9005002
2055,8004003,8004004,8005004,8005003,9004003,9004004,9005004,9005003
2056,8004004,8004005,8005005,8005004,9004004,9004005,9005005,9005004
2057,8004005,8004006,8005006,8005005,9004005,9004006,9005006,9005005
2058,8004006,8004007,8005007,8005006,9004006,9004007,9005007,9005006
2059,8004015,8004016,8005016,8005015,9004015,9004016,9005016,9005015
2060,8004016,8004017,8005017,8005016,9004016,9004017,9005017,9005016
2061,8004017,8004018,8005018,8005017,9004017,9004018,9005018,9005017
2062,8004018,8004019,8005019,8005018,9004018,9004019,9005019,9005018
2063,8004019,8004020,8005020,8005019,9004019,9004020,9005020,9005019
2064,8004020,8004021,8005021,8005020,9004020,9004021,9005021,9005020
2065,8005001,8005002,8006002,8006001,9005001,9005002,9006002,9006001
2066,8005002,8005003,8006003,8006002,9005002,9005003,9006003,9006002
2067,8005003,8005004,8006004,8006003,9005003,9005004,9006004,9006003
2068,8005004,8005005,8006005,8006004,9005004,9005005,9006005,9006004
2069,8005005,8005006,8006006,8006005,9005005,9005006,9006006,9006005
2070,8005016,8005017,8006017,8006016,9005016,9005017,9006017,9006016
2071,8005017,8005018,8006018,8006017,9005017,9005018,9006018,9006017
2072,8005018,8005019,8006019,8006018,9005018,9005019,9006019,9006018
2073,8005019,8005020,8006020,8006019,9005019,9005020,9006020,9006019
2074,8005020,8005021,8006021,8006020,9005020,9005021,9006021,9006020
2075,8006001,8006002,8007002,8007001,9006001,9006002,9007002,9007001
2076,8006002,8006003,8007003,8007002,9006002,9006003,9007003,9007002
2077,8006003,8006004,8007004,8007003,9006003,9006004,9007004,9007003
2078,8006004,8006005,8007005,8007004,9006004,9006005,9007005,9007004
2079,8006017,8006018,8007018,8007017,9006017,9006018,9007018,9007017
2080,8006018,8006019,8007019,8007018,9006018,9006019,9007019,9007018
2081,8006019,8006020,8007020,8007019,9006019,9006020,9007020,9007019
2082,8006020,8006021,8007021,8007020,9006020,9006021,9007021,9007020
2083,8007001,8007002,8008002,8008001,9007001,9007002,9008002,9008001
2084,8007002,8007003,8008003,8008002,9007002,9007003,9008003,9008002
2085,8007003,8007004,8008004,8008003,9007003,9007004,9008004,9008003
2086,8007004,8007005,8008005,8008004,9007004,9007005,9008005,9008004
2087,8007017,8007018,8008018,8008017,9007017,9007018,9008018,9008017
2088,8007018,8007019,8008019,8008018,9007018,9007019,9008019,9008018
2089,8007019,8007020,8008020,8008019,9007019,9007020,9008020,9008019
2090,8007020,8007021,8008021,8008020,9007020,9007021,9008021,9008020
2091,8008001,8008002,8009002,8009001,9008001,9008002,9009002,9009001
2092,8008002,8008003,8009003,8009002,9008002,9008003,9009003,9009002
2093,8008003,8008004,8009004,8009003,9008003,9008004,9009004,9009003
2094,8008018,8008019,8009019,8009018,9008018,9008019,9009019,9009018
2095,8008019,8008020,8009020,8009019,9008019,9008020,9009020,9009019
2096,8008020,8008021,8009021,8009020,9008020,9008021,9009021,9009020
2097,8009001,8009002,8010002,8010001,9009001,9009002,9010002,9010001
2098,8009002,8009003,8010003,8010002,9009002,9009003,9010003,9010002
2099,8009003,8009004,8010004,8010003,9009003,9009004,9010004,9010003
2100,8009018,8009019,8010019,8010018,9009018,9009019,9010019,9010018
2101,8009019,8009020,8010020,8010019,9009019,9009020,9010020,9010019
2102,8009020,8009021,8010021,8010020,9009020,9009021,9010021,9010020
2103,8010001,8010002,8011002,8011001,9010001,9010002,9011002,9011001
2104,8010002,8010003,8011003,8011002,9010002,9010003,9011003,9011002
2105,8010003,8010004,8011004,8011003,9010003,9010004,9011004,9011003
2106,8010018,8010019,8011019,8011018,9010018,9010019,9011019,9011018
2107,8010019,8010020,8011020,8011019,9010019,9010020,9011020,9011019
2108,8010020,8010021,8011021,8011020,9010020,9010021,9011021,9011020
2109,8011001,8011002,8012002,8012001,9011001,9011002,9012002,9012001
2110,8011002,8011003,8012003,8012002,9011002,9011003,9012003,9012002
2111,8011003,8011004,8012004,8012003,9011003,9011004,9012004,9012003
2112,8011018,8011019,8012019,8012018,9011018,9011019,9012019,9012018
2113,8011019,8011020,8012020,8012019,9011019,9011020,9012020,9012019
2114,8011020,8011021,8012021,8012020,9011020,9011021,9012021,9012020
2115,8012001,8012002,8013002,8013001,9012001,9012002,9013002,9013001
2116,8012002,8012003,8013003,8013002,9012002,9012003,9013003,9013002
2117,8012003,8012004,8013004,8013003,9012003,9012004,9013004,9013003
2118,8012004,8012005,8013005,8013004,9012004,9012005,9013005,9013004
2119,8012017,8012018,8013018,8013017,9012017,9012018,9013018,9013017
2120,8012018,8012019,8013019,8013018,9012018,9012019,9013019,9013018
2121,8012019,8012020,8013020,8013019,9012019,9012020,9013020,9013019
2122,8012020,8012021,8013021,8013020,9012020,9012021,9013021,9013020
2123,8013001,8013002,8014002,8014001,9013001,9013002,9014002,9014001
2124,8013002,8013003,8014003,8014002,9013002,9013003,9014003,9014002
2125,8013003,8013004,8014004,8014003,9013003,9013004,9014004,9014003
2126,8013004,8013005,8014005,8014004,9013004,9013005,9014005,9014004
2127,8013017,8013018,8014018,8014017,9013017,9013018,9014018,9014017
2128,8013018,8013019,8014019,8014018,9013018,9013019,9014019,9014018
2129,8013019,8013020,8014020,8014019,9013019,9013020,9014020,9014019
2130,8013020,8013021,8014021,8014020,9013020,9013021,9014021,9014020
2131,8014001,8014002,8015002,8015001,9014001,9014002,9015002,9015001
2132,8014002,8014003,8015003,8015002,9014002,9014003,9015003,9015002
2133,8014003,8014004,8015004,8015003,9014003,9014004,9015004,9015003
2134,8014004,8014005,8015005,8015004,9014004,9014005,9015005,9015004
2135,8014005,8014006,8015006,8015005,9014005,9014006,9015006,9015005
2136,8014016,8014017,8015017,8015016,9014016,9014017,9015017,9015016
2137,8014017,8014018,8015018,8015017,9014017,9014018,9015018,9015017
2138,8014018,8014019,8015019,8015018,9014018,9014019,9015019,9015018
2139,8014019,8014020,8015020,8015019,9014019,9014020,9015020,9015019
2140,8014020,8014021,8015021,8015020,9014020,9014021,9015021,9015020
2141,8015001,8015002,8016002,8016001,9015001,9015002,9016002,9016001
2142,8015002,8015003,8016003,8016002,9015002,9015003,9016003,9016002
2143,8015003,8015004,8016004,8016003,9015003,9015004,9016004,9016003
2144,8015004,8015005,8016005,8016004,9015004,9015005,9016005,9016004
2145,8015005,8015006,8016006,8016005,9015005,9015006,9016006,9016005
2146,8015006,8015007,8016007,8016006,9015006,9015007,9016007,9016006
2147,8015015,8015016,8016016,8016015,9015015,9015016,9016016,9016015
2148,8015016,8015017,8016017,8016016,9015016,9015017,9016017,9016016
2149,8015017,8015018,8016018,8016017,9015017,9015018,9016018,9016017
2150,8015018,8015019,8016019,8016018,9015018,9015019,9016019,9016018
2151,8015019,8015020,8016020,8016019,9015019,9015020,9016020,9016019
2152,8015020,8015021,8016021,8016020,9015020,9015021,9016021,9016020
2153,8016001,8016002,8017002,8017001,9016001,9016002,9017002,9017001
2154,8016002,8016003,8017003,8017002,9016002,9016003,9017003,9017002
2155,8016003,8016004,8017004,8017003,9016003,9016004,9017004,9017003
2156,8016004,8016005,8017005,8017004,9016004,9016005,9017005,9017004
2157,8016005,8016006,8017006,8017005,9016005,9016006,9017006,9017005
2158,8016006,8016007,8017007,8017006,9016006,9016007,9017007,9017006
2159,8016007,8016008,8017008,8017007,9016007,9016008,9017008,9017007
2160,8016008,8016009,8017009,8017008,9016008,9016009,9017009,9017008
2161,8016013,8016014,8017014,8017013,9016013,9016014,9017014,9017013
2162,8016014,8016015,8017015,8017014,9016014,9016015,9017015,9017014
2163,8016015,8016016,8017016,8017015,9016015,9016016,9017016,9017015
2164,8016016,8016017,8017017,8017016,9016016,9016017,9017017,9017016
2165,8016017,8016018,8017018,8017017,9016017,9016018,9017018,9017017
2166,8016018,8016019,8017019,8017018,9016018,9016019,9017019,9017018
2167,8016019,8016020,8017020,8017019,9016019,9016020,9017020,9017019
2168,8016020,8016021,8017021,8017020,9016020,9016021,9017021,9017020
2169,8017001,8017002,8018002,8018001,9017001,9017002,9018002,9018001
2170,8017002,8017003,8018003,8018002,9017002,9017003,9018003,9018002
2171,8017003,8017004,8018004,8018003,9017003,9017004,9018004,9018003
2172,8017004,8017005,8018005,8018004,9017004,9017005,9018005,9018004
2173,8017005,8017006,8018006,8018005,9017005,9017006,9018006,9018005
2174,8017006,8017007,8018007,8018006,9017006,9017007,9018007,9018006
2175,8017007,8017008,8018008,8018007,9017007,9017008,9018008,9018007
2176,8017008,8017009,8018009,8018008,9017008,9017009,9018009,9018008
2177,8017009,8017010,8018010,8018009,9017009,9017010,9018010,9018009
2178,8017010,8017011,8018011,8018010,9017010,9017011,9018011,9018010
2179,8017011,8017012,8018012,8018011,9017011,9017012,9018012,9018011
2180,8017012,8017013,8018013,8018012,9017012,9017013,9018013,9018012
2181,8017013,8017014,8018014,8018013,9017013,9017014,9018014,9018013
2182,8017014,8017015,8018015,8018014,9017014,9017015,9018015,9018014
2183,8017015,8017016,8018016,8018015,9017015,9017016,9018016,9018015
2184,8017016,8017017,8018017,8018016,9017016,9017017,9018017,9018016
2185,8017017,8017018,8018018,8018017,9017017,9017018,9018018,9018017
2186,8017018,8017019,8018019,8018018,9017018,9017019,9018019,9018018
2187,8017019,8017020,8018020,8018019,9017019,9017020,9018020,9018019
2188,8017020,8017021,8018021,8018020,9017020,9017021,9018021,9018020
2189,8018001,8018002,8019002,8019001,9018001,9018002,9019002,9019001
2190,8018002,8018003,8019003,8019002,9018002,9018003,9019003,9019002
2191,8018003,8018004,8019004,8019003,9018003,9018004,9019004,9019003
2192,8018004,8018005,8019005,8019004,9018004,9018005,9019005,9019004
2193,8018005,8018006,8019006,8019005,9018005,9018006,9019006,9019005
2194,8018006,8018007,8019007,8019006,9018006,9018007,9019007,9019006
2195,8018007,8018008,8019008,8019007,9018007,9018008,9019008,9019007
2196,8018008,8018009,8019009,8019008,9018008,9018009,9019009,9019008
2197,8018009,8018010,8019010,8019009,9018009,9018010,9019010,9019009
2198,8018010,8018011,8019011,8019010,9018010,9018011,9019011,9019010
2199,8018011,8018012,8019012,8019011,9018011,9018012,9019012,9019011
2200,8018012,8018013,8019013,8019012,9018012,9018013,9019013,9019012
2201,8018013,8018014,8019014,8019013,9018013,9018014,9019014,9019013
2202,8018014,8018015,8019015,8019014,9018014,9018015,9019015,9019014
2203,8018015,8018016,8019016,8019015,9018015,9018016,9019016,9019015
2204,8018016,8018017,8019017,8019016,9018016,9018017,9019017,9019016
2205,8018017,8018018,8019018,8019017,9018017,9018018,9019018,9019017
2206,8018018,8018019,8019019,8019018,9018018,9018019,9019019,9019018
2207,8018019,8018020,8019020,8019019,9018019,9018020,9019020,9019019
2208,8018020,8018021,8019021,8019020,9018020,9018021,9019021,9019020
2209,8019001,8019002,8020002,8020001,9019001,9019002,9020002,9020001
2210,8019002,8019003,8020003,8020002,9019002,9019003,9020003,9020002
2211,8019003,8019004,8020004,8020003,9019003,9019004,9020004,9020003
2212,8019004,8019005,8020005,8020004,9019004,9019005,9020005,9020004
2213,8019005,8019006,8020006,8020005,9019005,9019006,9020006,9020005
2214,8019006,8019007,8020007,8020006,9019006,9019007,9020007,9020006
2215,8019007,8019008,8020008,8020007,9019007,9019008,9020008,9020007
2216,8019008,8019009,8020009,8020008,9019008,9019009,9020009,9020008
2217,8019009,8019010,8020010,8020009,9019009,9019010,9020010,9020009
2218,8019010,8019011,8020011,8020010,9019010,9019011,9020011,9020010
2219,8019011,8019012,8020012,8020011,9019011,9019012,9020012,9020011
2220,8019012,8019013,8020013,8020012,9019012,9019013,9020013,9020012
2221,8019013,8019014,8020014,8020013,9019013,9019014,9020014,9020013
2222,8019014,8019015,8020015,8020014,9019014,9019015,9020015,9020014
2223,8019015,8019016,8020016,8020015,9019015,9019016,9020016,9020015
2224,8019016,8019017,8020017,8020016,9019016,9019017,9020017,9020016
2225,8019017,8019018,8020018,8020017,9019017,9019018,9020018,9020017
2226,8019018,8019019,8020019,8020018,9019018,9019019,9020019,9020018
2227,8019019,8019020,8020020,8020019,9019019,9019020,9020020,9020019
2228,8019020,8019021,8020021,8020020,9019020,9019021,9020021,9020020
2229,9000001,9000002,9001002,9001001,10000001,10000002,10001002,10001001
2230,9000002,9000003,9001003,9001002,10000002,10000003,10001003,10001002
2231,9000003,9000004,9001004,9001003,10000003,10000004,10001004,10001003
2232,9000004,9000005,9001005,9001004,10000004,10000005,10001005,10001004
2233,9000005,9000006,9001006,9001005,10000005,10000006,10001006,10001005
2234,9000006,9000007,9001007,9001006,10000006,10000007,10001007,10001006
2235,9000007,9000008,9001008,9001007,10000007,10000008,10001008,10001007
2236,9000008,9000009,9001009,9001008,10000008,10000009,10001009,10001008
2237,9000009,9000010,9001010,9001009,10000009,10000010,10001010,10001009
2238,9000010,9000011,9001011,9001010,10000010,10000011,10001011,10001010
2239,9000011,9000012,9001012,9001011,10000011,10000012,10001012,10001011
2240,9000012,9000013,9001013,9001012,10000012,10000013,10001013,10001012
2241,9000013,9000014,9001014,9001013,10000013,10000014,10001014,10001013
2242,9000014,9000015,9001015,9001014,10000014,10000015,10001015,10001014
2243,9000015,9000016,9001016,9001015,10000015,10000016,10001016,10001015
2244,9000016,9000017,9001017,9001016,10000016,10000017,10001017,10001016
2245,9000017,9000018,9001018,9001017,10000017,10000018,10001018,10001017
2246,9000018,9000019,9001019,9001018,10000018,10000019,10001019,10001018
2247,9000019,9000020,9001020,9001019,10000019,10000020,10001020,10001019
2248,9000020,9000021,9001021,9001020,10000020,10000021,10001021,10001020
2249,9001001,9001002,9002002,9002001,10001001,10001002,10002002,10002001
2250,9001002,9001003,9002003,9002002,10001002,10001003,10002003,10002002
2251,9001003,9001004,9002004,9002003,10001003,10001004,10002004,10002003
2252,9001004,9001005,9002005,9002004,10001004,10001005,10002005,10002004
2253,9001005,9001006,9002006,9002005,10001005,10001006,10002006,10002005
2254,9001006,9001007,9002007,9002006,10001006,10001007,10002007,10002006
2255,9001007,9001008,9002008,9002007,10001007,10001008,10002008,10002007
2256,9001008,9001009,9002009,9002008,10001008,10001009,10002009,10002008
2257,9001009,9001010,9002010,9002009,10001009,10001010,10002010,10002009
2258,9001010,9001011,9002011,9002010,10001010,10001011,10002011,10002010
2259,9001011,9001012,9002012,9002011,10001011,10001012,10002012,10002011
2260,9001012,9001013,9002013,9002012,10001012,10001013,10002013,10002012
2261,9001013,9001014,9002014,9002013,10001013,10001014,10002014,10002013
2262,9001014,9001015,9002015,9002014,10001014,10001015,10002015,10002014
2263,9001015,9001016,9002016,9002015,10001015,10001016,10002016,10002015
2264,9001016,9001017,9002017,9002016,10001016,10001017,10002017,10002016
2265,9001017,9001018,9002018,9002017,10001017,10001018,10002018,10002017
2266,9001018,9001019,9002019,9002018,10001018,10001019,10002019,10002018
2267,9001019,9001020,9002020,9002019,10001019,10001020,10002020,10002019
2268,9001020,9001021,9002021,9002020,10001020,10001021,10002021,10002020
2269,9002001,9002002,9003002,9003001,10002001,10002002,10003002,10003001
2270,9002002,9002003,9003003,9003002,10002002,10002003,10003003,10003002
2271,9002003,9002004,9003004,9003003,10002003,10002004,10003004,10003003
2272,9002004,9002005,9003005,9003004,10002004,10002005,10003005,10003004
2273,9002005,9002006,9003006,9003005,10002005,10002006,10003006,10003005
2274,9002006,9002007,9003007,9003006,10002006,10002007,10003007,10003006
2275,9002007,9002008,9003008,9003007,10002007,10002008,10003008,10003007
2276,9002008,9002009,9003009,9003008,10002008,10002009,10003009,10003008
2277,9002009,9002010,9003010,9003009,10002009,10002010,10003010,10003009
2278,9002010,9002011,9003011,9003010,10002010,10002011,10003011,10003010
2279,9002011,9002012,9003012,9003011,10002011,10002012,10003012,10003011
2280,9002012,9002013,9003013,9003012,10002012,10002013,10003013,10003012
2281,9002013,9002014,9003014,9003013,10002013,10002014,10003014,10003013
2282,9002014,9002015,9003015,9003014,10002014,10002015,10003015,10003014
2283,9002015,9002016,9003016,9003015,10002015,10002016,10003016,10003015
2284,9002016,9002017,9003017,9003016,10002016,10002017,10003017,10003016
2285,9002017,9002018,9003018,9003017,10002017,10002018,10003018,10003017
2286,9002018,9002019,9003019,9003018,10002018,10002019,10003019,10003018
2287,9002019,9002020,9003020,9003019,10002019,10002020,10003020,10003019
2288,9002020,9002021,9003021,9003020,10002020,10002021,10003021,10003020
2289,9003001,9003002,9004002,9004001,10003001,10003002,10004002,10004001
2290,9003002,9003003,9004003,9004002,10003002,10003003,10004003,10004002
2291,9003003,9003004,9004004,9004003,10003003,10003004,10004004,10004003
2292,9003004,9003005,9004005,9004004,10003004,10003005,10004005,10004004
2293,9003005,9003006,9004006,9004005,10003005,10003006,10004006,10004005
2294,9003006,9003007,9004007,9004006,10003006,10003007,10004007,10004006
2295,9003007,9003008,9004008,9004007,10003007,10003008,10004008,10004007
2296,9003008,9003009,9004009,9004008,10003008,10003009,10004009,10004008
2297,9003013,9003014,9004014,9004013,10003013,10003014,10004014,10004013
2298,9003014,9003015,9004015,9004014,10003014,10003015,10004015,10004014
2299,9003015,9003016,9004016,9004015,10003015,10003016,10004016,10004015
2300,9003016,9003017,9004017,9004016,10003016,10003017,10004017,10004016
2301,9003017,9003018,9004018,9004017,10003017,10003018,10004018,10004017
2302,9003018,9003019,9004019,9004018,10003018,10003019,10004019,10004018
2303,9003019,9003020,9004020,9004019,10003019,10003020,10004020,10004019
2304,9003020,9003021,9004021,9004020,10003020,10003021,10004021,10004020
2305,9004001,9004002,9005002,9005001,10004001,10004002,10005002,10005001
2306,9004002,9004003,9005003,9005002,10004002,10004003,10005003,10005002
2307,9004003,9004004,9005004,9005003,10004003,10004004,10005004,10005003
2308,9004004,9004005,9005005,9005004,10004004,10004005,10005005,10005004
2309,9004005,9004006,9005006,9005005,10004005,10004006,10005006,10005005
2310,9004006,9004007,9005007,9005006,10004006,10004007,10005007,10005006
2311,9004015,9004016,9005016,9005015,10004015,10004016,10005016,10005015
2312,9004016,9004017,9005017,9005016,10004016,10004017,10005017,10005016
2313,9004017,9004018,9005018,9005017,10004017,10004018,10005018,10005017
2314,9004018,9004019,9005019,9005018,10004018,10004019,10005019,10005018
2315,9004019,9004020,9005020,9005019,10004019,10004020,10005020,10005019
2316,9004020,9004021,9005021,9005020,10004020,10004021,10005021,10005020
2317,9005001,9005002,9006002,9006001,10005001,10005002,10006002,10006001
2318,9005002,9005003,9006003,9006002,10005002,10005003,10006003,10006002
2319,9005003,9005004,9006004,9006003,10005003,10005004,10006004,10006003
2320,9005004,9005005,9006005,9006004,10005004,10005005,10006005,10006004
2321,9005005,9005006,9006006,9006005,10005005,10005006,10006006,10006005
2322,9005016,9005017,9006017,9006016,10005016,10005017,10006017,10006016
2323,9005017,9005018,9006018,9006017,10005017,10005018,10006018,10006017
2324,9005018,9005019,9006019,9006018,10005018,10005019,10006019,10006018
2325,9005019,9005020,9006020,9006019,10005019,10005020,10006020,10006019
2326,9005020,9005021,9006021,9006020,10005020,10005021,10006021,10006020
2327,9006001,9006002,9007002,9007001,10006001,10006002,10007002,10007001
2328,9006002,9006003,9007003,9007002,10006002,10006003,10007003,10007002
2329,9006003,9006004,9007004,9007003,10006003,10006004,10007004,10007003
2330,9006004,9006005,9007005,9007004,10006004,10006005,10007005,10007004
2331,9006017,9006018,9007018,9007017,10006017,10006018,10007018,10007017
2332,9006018,9006019,9007019,9007018,10006018,10006019,10007019,10007018
2333,9006019,9006020,9007020,9007019,10006019,10006020,10007020,10007019
2334,9006020,9006021,9007021,9007020,10006020,10006021,10007021,10007020
2335,9007001,9007002,9008002,9008001,10007001,10007002,10008002,10008001
2336,9007002,9007003,9008003,9008002,10007002,10007003,10008003,10008002
2337,9007003,9007004,9008004,9008003,10007003,10007004,10008004,10008003
2338,9007004,9007005,9008005,9008004,10007004,10007005,10008005,10008004
2339,9007017,9007018,9008018,9008017,10007017,10007018,10008018,10008017
2340,9007018,9007019,9008019,9008018,10007018,10007019,10008019,10008018
2341,9007019,9007020,9008020,9008019,10007019,10007020,10008020,10008019
2342,9007020,9007021,9008021,9008020,10007020,10007021,10008021,10008020
2343,9008001,9008002,9009002,9009001,10008001,10008002,10009002,10009001
2344,9008002,9008003,9009003,9009002,10008002,10008003,10009003,10009002
2345,9008003,9008004,9009004,9009003,10008003,10008004,10009004,10009003
2346,9008018,9008019,9009019,9009018,10008018,10008019,10009019,10009018
2347,9008019,9008020,9009020,9009019,10008019,10008020,10009020,10009019
2348,9008020,9008021,9009021,9009020,10008020,10008021,10009021,10009020
2349,9009001,9009002,9010002,9010001,10009001,10009002,10010002,10010001
2350,9009002,9009003,9010003,9010002,10009002,10009003,10010003,10010002
2351,9009003,9009004,9010004,9010003,10009003,10009004,10010004,10010003
2352,9009018,9009019,9010019,9010018,10009018,10009019,10010019,10010018
2353,9009019,9009020,9010020,9010019,10009019,10009020,10010020,10010019
2354,9009020,9009021,9010021,9010020,10009020,10009021,10010021,10010020
2355,9010001,9010002,9011002,9011001,10010001,10010002,10011002,10011001
2356,9010002,9010003,9011003,9011002,10010002,10010003,10011003,10011002
2357,9010003,9010004,9011004,9011003,10010003,10010004,10011004,10011003
2358,9010018,9010019,9011019,9011018,10010018,10010019,10011019,10011018
2359,9010019,9010020,9011020,9011019,10010019,10010020,10011020,10011019
2360,9010020,9010021,9011021,9011020,10010020,10010021,10011021,10011020
2361,9011001,9011002,9012002,9012001,10011001,10011002,10012002,10012001
2362,9011002,9011003,9012003,9012002,10011002,10011003,10012003,10012002
2363,9011003,9011004,9012004,9012003,10011003,10011004,10012004,10012003
2364,9011018,9011019,9012019,9012018,10011018,10011019,10012019,10012018
2365,9011019,9011020,9012020,9012019,10011019,10011020,10012020,10012019
2366,9011020,9011021,9012021,9012020,10011020,10011021,10012021,10012020
2367,9012001,9012002,9013002,9013001,10012001,10012002,10013002,10013001
2368,9012002,9012003,9013003,9013002,10012002,10012003,10013003,10013002
2369,9012003,9012004,9013004,9013003,10012003,10012004,10013004,10013003
2370,9012004,9012005,9013005,9013004,10012004,10012005,10013005,10013004
2371,9012017,9012018,9013018,9013017,10012017,10012018,10013018,10013017
2372,9012018,9012019,9013019,9013018,10012018,10012019,10013019,10013018
2373,9012019,9012020,9013020,9013019,10012019,10012020,10013020,10013019
2374,9012020,9012021,9013021,9013020,10012020,10012021,10013021,10013020
2375,9013001,9013002,9014002,9014001,10013001,10013002,10014002,10014001
2376,9013002,9013003,9014003,9014002,10013002,10013003,10014003,10014002
2377,9013003,9013004,9014004,9014003,10013003,10013004,10014004,10014003
2378,9013004,9013005,9014005,9014004,10013004,10013005,10014005,10014004
2379,9013017,9013018,9014018,9014017,10013017,10013018,10014018,10014017
2380,9013018,9013019,9014019,9014018,10013018,10013019,10014019,10014018
2381,9013019,9013020,9014020,9014019,10013019,10013020,10014020,10014019
2382,9013020,9013021,9014021,9014020,10013020,10013021,10014021,10014020
2383,9014001,9014002,9015002,9015001,10014001,10014002,10015002,10015001
2384,9014002,9014003,9015003,9015002,10014002,10014003,10015003,10015002
2385,9014003,9014004,9015004,9015003,10014003,10014004,10015004,10015003
2386,9014004,9014005,9015005,9015004,10014004,10014005,10015005,10015004
2387,9014005,9014006,9015006,9015005,10014005,10014006,10015006,10015005
2388,9014016,9014017,9015017,9015016,10014016,10014017,10015017,10015016
2389,9014017,9014018,9015018,9015017,10014017,10014018,10015018,10015017
2390,9014018,9014019,9015019,9015018,10014018,10014019,10015019,10015018
2391,9014019,9014020,9015020,9015019,10014019,10014020,10015020,10015019
2392,9014020,9014021,9015021,9015020,10014020,10014021,10015021,10015020
2393,9015001,9015002,9016002,9016001,10015001,10015002,10016002,10016001
2394,9015002,9015003,9016003,9016002,10015002,10015003,10016003,10016002
2395,9015003,9015004,9016004,9016003,10015003,10015004,10016004,10016003
2396,9015004,9015005,9016005,9016004,10015004,10015005,10016005,10016004
2397,9015005,9015006,9016006,9016005,10015005,10015006,10016006,10016005
2398,9015006,9015007,9016007,9016006,10015006,10015007,10016007,10016006
2399,9015015,9015016,9016016,9016015,10015015,10015016,10016016,10016015
2400,9015016,9015017,9016017,9016016,10015016,10015017,10016017,10016016
2401,9015017,9015018,9016018,9016017,10015017,10015018,10016018,10016017
2402,9015018,9015019,9016019,9016018,10015018,10015019,10016019,10016018
2403,9015019,9015020,9016020,9016019,10015019,10015020,10016020,10016019
2404,9015020,9015021,9016021,9016020,10015020,10015021,10016021,10016020
2405,9016001,9016002,9017002,9017001,10016001,10016002,10017002,10017001
2406,9016002,9016003,9017003,9017002,10016002,10016003,10017003,10017002
2407,9016003,9016004,9017004,9017003,10016003,10016004,10017004,10017003
2408,9016004,9016005,9017005,9017004,10016004,10016005,10017005,10017004
2409,9016005,9016006,9017006,9017005,10016005,10016006,10017006,10017005
2410,9016006,9016007,9017007,9017006,10016006,10016007,10017007,10017006
2411,9016007,9016008,9017008,9017007,10016007,10016008,10017008,10017007
2412,9016008,9016009,9017009,9017008,10016008,10016009,10017009,10017008
2413,9016013,9016014,9017014,9017013,10016013,10016014,10017014,10017013
2414,9016014,9016015,9017015,9017014,10016014,10016015,10017015,10017014
2415,9016015,9016016,9017016,9017015,10016015,10016016,10017016,10017015
2416,9016016,9016017,9017017,9017016,10016016,10016017,10017017,10017016
2417,9016017,9016018,9017018,9017017,10016017,10016018,10017018,10017017
2418,9016018,9016019,9017019,9017018,10016018,10016019,10017019,10017018
2419,9016019,9016020,9017020,9017019,10016019,10016020,10017020,10017019
2420,9016020,9016021,9017021,9017020,10016020,10016021,10017021,10017020
2421,9017001,9017002,9018002,9018001,10017001,10017002,10018002,10018001
2422,9017002,9017003,9018003,9018002,10017002,10017003,10018003,10018002
2423,9017003,9017004,9018004,9018003,10017003,10017004,10018004,10018003
2424,9017004,9017005,9018005,9018004,10017004,10017005,10018005,10018004
2425,9017005,9017006,9018006,9018005,10017005,10017006,10018006,10018005
2426,9017006,9017007,9018007,9018006,10017006,10017007,10018007,10018006
2427,9017007,9017008,9018008,9018007,10017007,10017008,10018008,10018007
2428,9017008,9017009,9018009,9018008,10017008,10017009,10018009,10018008
2429,9017009,9017010,9018010,9018009,10017009,10017010,10018010,10018009
2430,9017010,9017011,9018011,9018010,10017010,10017011,10018011,10018010
2431,9017011,9017012,9018012,9018011,10017011,10017012,10018012,10018011
2432,9017012,9017013,9018013,9018012,10017012,10017013,10018013,10018012
2433,9017013,9017014,9018014,9018013,10017013,10017014,10018014,10018013
2434,9017014,9017015,9018015,9018014,10017014,10017015,10018015,10018014
2435,9017015,9017016,9018016,9018015,10017015,10017016,10018016,10018015
2436,9017016,9017017,9018017,9018016,10017016,10017017,10018017,10018016
2437,9017017,9017018,9018018,9018017,10017017,10017018,10018018,10018017
2438,9017018,9017019,9018019,9018018,10017018,10017019,10018019,10018018
2439,9017019,9017020,9018020,9018019,10017019,10017020,10018020,10018019
2440,9017020,9017021,9018021,9018020,10017020,10017021,10018021,10018020
2441,9018001,9018002,9019002,9019001,10018001,10018002,10019002,10019001
2442,9018002,9018003,9019003,9019002,10018002,10018003,10019003,10019002
2443,9018003,9018004,9019004,9019003,10018003,10018004,10019004,10019003
2444,9018004,9018005,9019005,9019004,10018004,10018005,10019005,10019004
2445,9018005,9018006,9019006,9019005,10018005,10018006,10019006,10019005
2446,9018006,9018007,9019007,9019006,10018006,10018007,10019007,10019006
2447,9018007,9018008,9019008,9019007,10018007,10018008,10019008,10019007
2448,9018008,9018009,9019009,9019008,10018008,10018009,10019009,10019008
2449,9018009,9018010,9019010,9019009,10018009,10018010,10019010,10019009
2450,9018010,9018011,9019011,9019010,10018010,10018011,10019011,10019010
2451,9018011,9018012,9019012,9019011,10018011,10018012,10019012,10019011
2452,9018012,9018013,9019013,9019012,10018012,10018013,10019013,10019012
2453,9018013,9018014,9019014,9019013,10018013,10018014,10019014,10019013
2454,9018014,9018015,9019015,9019014,10018014,10018015,10019015,10019014
2455,9018015,9018016,9019016,9019015,10018015,10018016,10019016,10019015
2456,9018016,9018017,9019017,9019016,10018016,10018017,10019017,10019016
2457,9018017,9018018,9019018,9019017,10018017,10018018,10019018,10019017
2458,9018018,9018019,9019019,9019018,10018018,10018019,10019019,10019018
2459,9018019,9018020,9019020,9019019,10018019,10018020,10019020,10019019
2460,9018020,9018021,9019021,9019020,10018020,10018021,10019021,10019020
2461,9019001,9019002,9020002,9020001,10019001,10019002,10020002,10020001
2462,9019002,9019003,9020003,9020002,10019002,10019003,10020003,10020002
2463,9019003,9019004,9020004,9020003,10019003,10019004,10020004,10020003
2464,9019004,9019005,9020005,9020004,10019004,10019005,10020005,10020004
2465,9019005,9019006,9020006,9020005,10019005,10019006,10020006,10020005
2466,9019006,9019007,9020007,9020006,10019006,10019007,10020007,10020006
2467,9019007,9019008,9020008,9020007,10019007,10019008,10020008,10020007
2468,9019008,9019009,9020009,9020008,10019008,10019009,10020009,10020008
2469,9019009,9019010,9020010,9020009,10019009,10019010,10020010,10020009
2470,9019010,9019011,9020011,9020010,10019010,10019011,10020011,10020010
2471,9019011,9019012,9020012,9020011,10019011,10019012,10020012,10020011
2472,9019012,9019013,9020013,9020012,10019012,10019013,10020013,10020012
2473,9019013,9019014,9020014,9020013,10019013,10019014,10020014,10020013
2474,9019014,9019015,9020015,9020014,10019014,10019015,10020015,10020014
2475,9019015,9019016,9020016,9020015,10019015,10019016,10020016,10020015
2476,9019016,9019017,9020017,9020016,10019016,10019017,10020017,10020016
2477,9019017,9019018,9020018,9020017,10019017,10019018,10020018,10020017
2478,9019018,9019019,9020019,9020018,10019018,10019019,10020019,10020018
2479,9019019,9019020,9020020,9020019,10019019,10019020,10020020,10020019
2480,9019020,9019021,9020021,9020020,10019020,10019021,10020021,10020020
2481,10000001,10000002,10001002,10001001,11000001,11000002,11001002,11001001
2482,10000002,10000003,10001003,10001002,11000002,11000003,11001003,11001002
2483,10000003,10000004,10001004,10001003,11000003,11000004,11001004,11001003
2484,10000004,10000005,10001005,10001004,11000004,11000005,11001005,11001004
2485,10000005,10000006,10001006,10001005,11000005,11000006,11001006,11001005
2486,10000006,10000007,10001007,10001006,11000006,11000007,11001007,11001006
2487,10000007,10000008,10001008,10001007,11000007,11000008,11001008,11001007
2488,10000008,10000009,10001009,10001008,11000008,11000009,11001009,11001008
2489,10000009,10000010,10001010,10001009,11000009,11000010,11001010,11001009
2490,10000010,10000011,10001011,10001010,11000010,11000011,11001011,11001010
2491,10000011,10000012,10001012,10001011,11000011,11000012,11001012,11001011
2492,10000012,10000013,10001013,10001012,11000012,11000013,11001013,11001012
2493,10000013,10000014,10001014,10001013,11000013,11000014,11001014,11001013
2494,10000014,10000015,10001015,10001014,11000014,11000015,11001015,11001014
2495,10000015,10000016,10001016,10001015,11000015,11000016,11001016,11001015
2496,10000016,10000017,10001017,10001016,11000016,11000017,11001017,11001016
2497,10000017,10000018,10001018,10001017,11000017,11000018,11001018,11001017
2498,10000018,10000019,10001019,10001018,11000018,11000019,11001019,11001018
2499,10000019,10000020,10001020,10001019,11000019,11000020,11001020,11001019
2500,10000020,10000021,10001021,10001020,11000020,11000021,11001021,11001020
2501,10001001,10001002,10002002,10002001,11001001,11001002,11002002,11002001
2502,10001002,10001003,10002003,10002002,11001002,11001003,11002003,11002002
2503,10001003,10001004,10002004,10002003,11001003,11001004,11002004,11002003
2504,10001004,10001005,10002005,10002004,11001004,11001005,11002005,11002004
2505,10001005,10001006,10002006,10002005,11001005,11001006,11002006,11002005
2506,10001006,10001007,10002007,10002006,11001006,11001007,11002007,11002006
2507,10001007,10001008,10002008,10002007,11001007,11001008,11002008,11002007
2508,10001008,10001009,10002009,10002008,11001008,11001009,11002009,11002008
2509,10001009,10001010,10002010,10002009,11001009,11001010,11002010,11002009
2510,10001010,10001011,10002011,10002010,11001010,11001011,11002011,11002010
2511,10001011,10001012,10002012,10002011,11001011,11001012,11002012,11002011
2512,10001012,10001013,10002013,10002012,11001012,11001013,11002013,11002012
2513,10001013,10001014,10002014,10002013,11001013,11001014,11002014,11002013
2514,10001014,10001015,10002015,10002014,11001014,11001015,11002015,11002014
2515,10001015,10001016,10002016,10002015,11001015,11001016,11002016,11002015
2516,10001016,10001017,10002017,10002016,11001016,11001017,11002017,11002016
2517,10001017,10001018,10002018,10002017,11001017,11001018,11002018,11002017
2518,10001018,10001019,10002019,10002018,11001018,11001019,11002019,11002018
2519,10001019,10001020,10002020,10002019,11001019,11001020,11002020,11002019
2520,10001020,10001021,10002021,10002020,11001020,11001021,11002021,11002020
2521,10002001,10002002,10003002,10003001,11002001,11002002,11003002,11003001
2522,10002002,10002003,10003003,10003002,11002002,11002003,11003003,11003002
2523,10002003,10002004,10003004,10003003,11002003,11002004,11003004,11003003
2524,10002004,10002005,10003005,10003004,11002004,11002005,11003005,11003004
2525,10002005,10002006,10003006,10003005,11002005,11002006,11003006,11003005
2526,10002006,10002007,10003007,10003006,11002006,11002007,11003007,11003006
2527,10002007,10002008,10003008,10003007,11002007,11002008,11003008,11003007
2528,10002008,10002009,10003009,10003008,11002008,11002009,11003009,11003008
2529,10002009,10002010,10003010,10003009,11002009,11002010,11003010,11003009
2530,10002010,10002011,10003011,10003010,11002010,11002011,11003011,11003010
2531,10002011,10002012,10003012,10003011,11002011,11002012,11003012,11003011
2532,10002012,10002013,10003013,10003012,11002012,11002013,11003013,11003012
2533,10002013,10002014,10003014,10003013,11002013,11002014,11003014,11003013
2534,10002014,10002015,10003015,10003014,11002014,11002015,11003015,11003014
2535,10002015,10002016,10003016,10003015,11002015,11002016,11003016,11003015
2536,10002016,10002017,10003017,10003016,11002016,11002017,11003017,11003016
2537,10002017,10002018,10003018,10003017,11002017,11002018,11003018,11003017
2538,10002018,10002019,10003019,10003018,11002018,11002019,11003019,11003018
2539,10002019,10002020,10003020,10003019,11002019,11002020,11003020,11003019
2540,10002020,10002021,10003021,10003020,11002020,11002021,11003021,11003020
2541,10003001,10003002,10004002,10004001,11003001,11003002,11004002,11004001
2542,10003002,10003003,10004003,10004002,11003002,11003003,11004003,11004002
2543,10003003,10003004,10004004,10004003,11003003,11003004,11004004,11004003
2544,10003004,10003005,10004005,10004004,11003004,11003005,11004005,11004004
2545,10003005,10003006,10004006,10004005,11003005,11003006,11004006,11004005
2546,10003006,10003007,10004007,10004006,11003006,11003007,11004007,11004006
2547,10003007,10003008,10004008,10004007,11003007,11003008,11004008,11004007
2548,10003008,10003009,10004009,10004008,11003008,11003009,11004009,11004008
2549,10003009,10003010,10004010,10004009,11003009,11003010,11004010,11004009
2550,10003010,10003011,10004011,10004010,11003010,11003011,11004011,11004010
2551,10003011,10003012,10004012,10004011,11003011,11003012,11004012,11004011
2552,10003012,10003013,10004013,10004012,11003012,11003013,11004013,11004012
2553,10003013,10003014,10004014,10004013,11003013,11003014,11004014,11004013
2554,10003014,10003015,10004015,10004014,11003014,11003015,11004015,11004014
2555,10003015,10003016,10004016,10004015,11003015,11003016,11004016,11004015
2556,10003016,10003017,10004017,10004016,11003016,11003017,11004017,11004016
2557,10003017,10003018,10004018,10004017,11003017,11003018,11004018,11004017
2558,10003018,10003019,10004019,10004018,11003018,11003019,11004019,11004018
2559,10003019,10003020,10004020,10004019,11003019,11003020,11004020,11004019
2560,10003020,10003021,10004021,10004020,11003020,11003021,11004021,11004020
2561,10004001,10004002,10005002,10005001,11004001,11004002,11005002,11005001
2562,10004002,10004003,10005003,10005002,11004002,11004003,11005003,11005002
2563,10004003,10004004,10005004,10005003,11004003,11004004,11005004,11005003
2564,10004004,10004005,10005005,10005004,11004004,11004005,11005005,11005004
2565,10004005,10004006,10005006,10005005,11004005,11004006,11005006,11005005
2566,10004006,10004007,10005007,10005006,11004006,11004007,11005007,11005006
2567,10004007,10004008,10005008,10005007,11004007,11004008,11005008,11005007
2568,10004008,10004009,10005009,10005008,11004008,11004009,11005009,11005008
2569,10004009,10004010,10005010,10005009,11004009,11004010,11005010,11005009
2570,10004010,10004011,10005011,10005010,11004010,11004011,11005011,11005010
2571,10004011,10004012,10005012,10005011,11004011,11004012,11005012,11005011
2572,10004012,10004013,10005013,10005012,11004012,11004013,11005013,11005012
2573,10004013,10004014,10005014,10005013,11004013,11004014,11005014,11005013
2574,10004014,10004015,10005015,10005014,11004014,11004015,11005015,11005014
2575,10004015,10004016,10005016,10005015,11004015,11004016,11005016,11005015
2576,10004016,10004017,10005017,10005016,11004016,11004017,11005017,11005016
2577,10004017,10004018,10005018,10005017,11004017,11004018,11005018,11005017
2578,10004018,10004019,10005019,10005018,11004018,11004019,11005019,11005018
2579,10004019,10004020,10005020,10005019,11004019,11004020,11005020,11005019
2580,10004020,10004021,10005021,10005020,11004020,11004021,11005021,11005020
2581,10005001,10005002,10006002,10006001,11005001,11005002,11006002,11006001
2582,10005002,10005003,10006003,10006002,11005002,11005003,11006003,11006002
2583,10005003,10005004,10006004,10006003,11005003,11005004,11006004,11006003
2584,10005004,10005005,10006005,10006004,11005004,11005005,11006005,11006004
2585,10005005,10005006,10006006,10006005,11005005,11005006,11006006,11006005
2586,10005006,10005007,10006007,10006006,11005006,11005007,11006007,11006006
2587,10005007,10005008,10006008,10006007,11005007,11005008,11006008,11006007
2588,10005008,10005009,10006009,10006008,11005008,11005009,11006009,11006008
2589,10005009,10005010,10006010,10006009,11005009,11005010,11006010,11006009
2590,10005010,10005011,10006011,10006010,11005010,11005011,11006011,11006010
2591,10005011,10005012,10006012,10006011,11005011,11005012,11006012,11006011
2592,10005012,10005013,10006013,10006012,11005012,11005013,11006013,11006012
2593,10005013,10005014,10006014,10006013,11005013,11005014,11006014,11006013
2594,10005014,10005015,10006015,10006014,11005014,11005015,11006015,11006014
2595,10005015,10005016,10006016,10006015,11005015,11005016,11006016,11006015
2596,10005016,10005017,10006017,10006016,11005016,11005017,11006017,11006016
2597,10005017,10005018,10006018,10006017,11005017,11005018,11006018,11006017
2598,10005018,10005019,10006019,10006018,11005018,11005019,11006019,11006018
2599,10005019,10005020,10006020,10006019,11005019,11005020,11006020,11006019
2600,10005020,10005021,10006021,10006020,11005020,11005021,11006021,11006020
2601,10006001,10006002,10007002,10007001,11006001,11006002,11007002,11007001
2602,10006002,10006003,10007003,10007002,11006002,11006003,11007003,11007002
2603,10006003,10006004,10007004,10007003,11006003,11006004,11007004,11007003
2604,10006004,10006005,10007005,10007004,11006004,11006005,11007005,11007004
2605,10006005,10006006,10007006,10007005,11006005,11006006,11007006,11007005
2606,10006006,10006007,10007007,10007006,11006006,11006007,11007007,11007006
2607,10006007,10006008,10007008,10007007,11006007,11006008,11007008,11007007
2608,10006008,10006009,10007009,10007008,11006008,11006009,11007009,11007008
2609,10006009,10006010,10007010,10007009,11006009,11006010,11007010,11007009
2610,10006010,10006011,10007011,10007010,11006010,11006011,11007011,11007010
2611,10006011,10006012,10007012,10007011,11006011,11006012,11007012,11007011
2612,10006012,10006013,10007013,10007012,11006012,11006013,11007013,11007012
2613,10006013,10006014,10007014,10007013,11006013,11006014,11007014,11007013
2614,10006014,10006015,10007015,10007014,11006014,11006015,11007015,11007014
2615,10006015,10006016,10007016,10007015,11006015,11006016,11007016,11007015
2616,10006016,10006017,10007017,10007016,11006016,11006017,11007017,11007016
2617,10006017,10006018,10007018,10007017,11006017,11006018,11007018,11007017
2618,10006018,10006019,10007019,10007018,11006018,11006019,11007019,11007018
2619,10006019,10006020,10007020,10007019,11006019,11006020,11007020,11007019
2620,10006020,10006021,10007021,10007020,11006020,11006021,11007021,11007020
2621,10007001,10007002,10008002,10008001,11007001,11007002,11008002,11008001
2622,10007002,10007003,10008003,10008002,11007002,11007003,11008003,11008002
2623,10007003,10007004,10008004,10008003,11007003,11007004,11008004,11008003
2624,10007004,10007005,10008005,10008004,11007004,11007005,11008005,11008004
2625,10007005,10007006,10008006,10008005,11007005,11007006,11008006,11008005
2626,10007006,10007007,10008007,10008006,11007006,11007007,11008007,11008006
2627,10007007,10007008,10008008,10008007,11007007,11007008,11008008,11008007
2628,10007008,10007009,10008009,10008008,11007008,11007009,11008009,11008008
2629,10007009,10007010,10008010,10008009,11007009,11007010,11008010,11008009
2630,10007010,10007011,10008011,10008010,11007010,11007011,11008011,11008010
2631,10007011,10007012,10008012,10008011,11007011,11007012,11008012,11008011
2632,10007012,10007013,10008013,10008012,11007012,11007013,11008013,11008012
2633,10007013,10007014,10008014,10008013,11007013,11007014,11008014,11008013
2634,10007014,10007015,10008015,10008014,11007014,11007015,11008015,11008014
2635,10007015,10007016,10008016,10008015,11007015,11007016,11008016,11008015
2636,10007016,10007017,10008017,10008016,11007016,11007017,11008017,11008016
2637,10007017,10007018,10008018,10008017,11007017,11007018,11008018,11008017
2638,10007018,10007019,10008019,10008018,11007018,11007019,11008019,11008018
2639,10007019,10007020,10008020,10008019,11007019,11007020,11008020,11008019
2640,10007020,10007021,10008021,10008020,11007020,11007021,11008021,11008020
2641,10008001,10008002,10009002,10009001,11008001,11008002,11009002,11009001
2642,10008002,10008003,10009003,10009002,11008002,11008003,11009003,11009002
2643,10008003,10008004,10009004,10009003,11008003,11008004,11009004,11009003
2644,10008004,10008005,10009005,10009004,11008004,11008005,11009005,11009004
2645,10008005,10008006,10009006,10009005,11008005,11008006,11009006,11009005
2646,10008006,10008007,10009007,10009006,11008006,11008007,11009007,11009006
2647,10008007,10008008,10009008,10009007,11008007,11008008,11009008,11009007
2648,10008008,10008009,10009009,10009008,11008008,11008009,11009009,11009008
2649,10008009,10008010,10009010,10009009,11008009,11008010,11009010,11009009
2650,10008010,10008011,10009011,10009010,11008010,11008011,11009011,11009010
2651,10008011,10008012,10009012,10009011,11008011,11008012,11009012,11009011
2652,10008012,10008013,10009013,10009012,11008012,11008013,11009013,11009012
2653,10008013,10008014,10009014,10009013,11008013,11008014,11009014,11009013
2654,10008014,10008015,10009015,10009014,11008014,11008015,11009015,11009014
2655,10008015,10008016,10009016,10009015,11008015,11008016,11009016,11009015
2656,10008016,10008017,10009017,10009016,11008016,11008017,11009017,11009016
2657,10008017,10008018,10009018,10009017,11008017,11008018,11009018,11009017
2658,10008018,10008019,10009019,10009018,11008018,11008019,11009019,11009018
2659,10008019,10008020,10009020,10009019,11008019,11008020,11009020,11009019
2660,10008020,10008021,10009021,10009020,11008020,11008021,11009021,11009020
2661,10009001,10009002,10010002,10010001,11009001,11009002,11010002,11010001
2662,10009002,10009003,10010003,10010002,11009002,11009003,11010003,11010002
2663,10009003,10009004,10010004,10010003,11009003,11009004,11010004,11010003
2664,10009004,10009005,10010005,10010004,11009004,11009005,11010005,11010004
2665,10009005,10009006,10010006,10010005,11009005,11009006,11010006,11010005
2666,10009006,10009007,10010007,10010006,11009006,11009007,11010007,11010006
2667,10009007,10009008,10010008,10010007,11009007,11009008,11010008,11010007
2668,10009008,10009009,10010009,10010008,11009008,11009009,11010009,11010008
2669,10009009,10009010,10010010,10010009,11009009,11009010,11010010,11010009
2670,10009010,10009011,10010011,10010010,11009010,11009011,11010011,11010010
2671,10009011,10009012,10010012,10010011,11009011,11009012,11010012,11010011
2672,10009012,10009013,10010013,10010012,11009012,11009013,11010013,11010012
2673,10009013,10009014,10010014,10010013,11009013,11009014,11010014,11010013
2674,10009014,10009015,10010015,10010014,11009014,11009015,11010015,11010014
2675,10009015,10009016,10010016,10010015,11009015,11009016,11010016,11010015
2676,10009016,10009017,10010017,10010016,11009016,11009017,11010017,11010016
2677,10009017,10009018,10010018,10010017,11009017,11009018,11010018,11010017
2678,10009018,10009019,10010019,10010018,11009018,11009019,11010019,11010018
2679,10009019,10009020,10010020,10010019,11009019,11009020,11010020,11010019
2680,10009020,10009021,10010021,10010020,11009020,11009021,11010021,11010020
2681,10010001,10010002,10011002,10011001,11010001,11010002,11011002,11011001
2682,10010002,10010003,10011003,10011002,11010002,11010003,11011003,11011002
2683,10010003,10010004,10011004,10011003,11010003,11010004,11011004,11011003
2684,10010004,10010005,10011005,10011004,11010004,11010005,11011005,11011004
2685,10010005,10010006,10011006,10011005,11010005,11010006,11011006,11011005
2686,10010006,10010007,10011007,10011006,11010006,11010007,11011007,11011006
2687,10010007,10010008,10011008,10011007,11010007,11010008,11011008,11011007
2688,10010008,10010009,10011009,10011008,11010008,11010009,11011009,11011008
2689,10010009,10010010,10011010,10011009,11010009,11010010,11011010,11011009
2690,10010010,10010011,10011011,10011010,11010010,11010011,11011011,11011010
2691,10010011,10010012,10011012,10011011,11010011,11010012,11011012,11011011
2692,10010012,10010013,10011013,10011012,11010012,11010013,11011013,11011012
2693,10010013,10010014,10011014,10011013,11010013,11010014,11011014,11011013
2694,10010014,10010015,10011015,10011014,11010014,11010015,11011015,11011014
2695,10010015,10010016,10011016,10011015,11010015,11010016,11011016,11011015
2696,10010016,10010017,10011017,10011016,11010016,11010017,11011017,11011016
2697,10010017,10010018,10011018,10011017,11010017,11010018,11011018,11011017
2698,10010018,10010019,10011019,10011018,11010018,11010019,11011019,11011018
2699,10010019,10010020,10011020,10011019,11010019,11010020,11011020,11011019
2700,10010020,10010021,10011021,10011020,11010020,11010021,11011021,11011020
2701,10011001,10011002,10012002,10012001,11011001,11011002,11012002,11012001
2702,10011002,10011003,10012003,10012002,11011002,11011003,11012003,11012002
2703,10011003,10011004,10012004,10012003,11011003,11011004,11012004,11012003
2704,10011004,10011005,10012005,10012004,11011004,11011005,11012005,11012004
2705,10011005,10011006,10012006,10012005,11011005,11011006,11012006,11012005
2706,10011006,10011007,10012007,10012006,11011006,11011007,11012007,11012006
2707,10011007,10011008,10012008,10012007,11011007,11011008,11012008,11012007
2708,10011008,10011009,10012009,10012008,11011008,11011009,11012009,11012008
2709,10011009,10011010,10012010,10012009,11011009,11011010,11012010,11012009
2710,10011010,10011011,10012011,10012010,11011010,11011011,11012011,11012010
2711,10011011,10011012,10012012,10012011,11011011,11011012,11012012,11012011
2712,10011012,10011013,10012013,10012012,11011012,11011013,11012013,11012012
2713,10011013,10011014,10012014,10012013,11011013,11011014,11012014,11012013
2714,10011014,10011015,10012015,10012014,11011014,11011015,11012015,11012014
2715,10011015,10011016,10012016,10012015,11011015,11011016,11012016,11012015
2716,10011016,10011017,10012017,10012016,11011016,11011017,11012017,11012016
2717,10011017,10011018,10012018,10012017,11011017,11011018,11012018,11012017
2718,10011018,10011019,10012019,10012018,11011018,11011019,11012019,11012018
2719,10011019,10011020,10012020,10012019,11011019,11011020,11012020,11012019
2720,10011020,10011021,10012021,10012020,11011020,11011021,11012021,11012020
2721,10012001,10012002,10013002,10013001,11012001,11012002,11013002,11013001
2722,10012002,10012003,10013003,10013002,11012002,11012003,11013003,11013002
2723,10012003,10012004,10013004,10013003,11012003,11012004,11013004,11013003
2724,10012004,10012005,10013005,10013004,11012004,11012005,11013005,11013004
2725,10012005,10012006,10013006,10013005,11012005,11012006,11013006,11013005
2726,10012006,10012007,10013007,10013006,11012006,11012007,11013007,11013006
2727,10012007,10012008,10013008,10013007,11012007,11012008,11013008,11013007
2728,10012008,10012009,10013009,10013008,11012008,11012009,11013009,11013008
2729,10012009,10012010,10013010,10013009,11012009,11012010,11013010,11013009
2730,10012010,10012011,10013011,10013010,11012010,11012011,11013011,11013010
2731,10012011,10012012,10013012,10013011,11012011,11012012,11013012,11013011
2732,10012012,10012013,10013013,10013012,11012012,11012013,11013013,11013012
2733,10012013,10012014,10013014,10013013,11012013,11012014,11013014,11013013
2734,10012014,10012015,10013015,10013014,11012014,11012015,11013015,11013014
2735,10012015,10012016,10013016,10013015,11012015,11012016,11013016,11013015
2736,10012016,10012017,10013017,10013016,11012016,11012017,11013017,11013016
2737,10012017,10012018,10013018,10013017,11012017,11012018,11013018,11013017
2738,10012018,10012019,10013019,10013018,11012018,11012019,11013019,11013018
2739,10012019,10012020,10013020,10013019,11012019,11012020,11013020,11013019
2740,10012020,10012021,10013021,10013020,11012020,11012021,11013021,11013020
2741,10013001,10013002,10014002,10014001,11013001,11013002,11014002,11014001
2742,10013002,10013003,10014003,10014002,11013002,11013003,11014003,11014002
2743,10013003,10013004,10014004,10014003,11013003,11013004,11014004,11014003
2744,10013004,10013005,10014005,10014004,11013004,11013005,11014005,11014004
2745,10013005,10013006,10014006,10014005,11013005,11013006,11014006,11014005
2746,10013006,10013007,10014007,10014006,11013006,11013007,11014007,11014006
2747,10013007,10013008,10014008,10014007,11013007,11013008,11014008,11014007
2748,10013008,10013009,10014009,10014008,11013008,11013009,11014009,11014008
2749,10013009,10013010,10014010,10014009,11013009,11013010,11014010,11014009
2750,10013010,10013011,10014011,10014010,11013010,11013011,11014011,11014010
2751,10013011,10013012,10014012,10014011,11013011,11013012,11014012,11014011
2752,10013012,10013013,10014013,10014012,11013012,11013013,11014013,11014012
2753,10013013,10013014,10014014,10014013,11013013,11013014,11014014,11014013
2754,10013014,10013015,10014015,10014014,11013014,11013015,11014015,11014014
2755,10013015,10013016,10014016,10014015,11013015,11013016,11014016,11014015
2756,10013016,10013017,10014017,10014016,11013016,11013017,11014017,11014016
2757,10013017,10013018,10014018,10014017,11013017,11013018,11014018,11014017
2758,10013018,10013019,10014019,10014018,11013018,11013019,11014019,11014018
2759,10013019,10013020,10014020,10014019,11013019,11013020,11014020,11014019
2760,10013020,10013021,10014021,10014020,11013020,11013021,11014021,11014020
2761,10014001,10014002,10015002,10015001,11014001,11014002,11015002,11015001
2762,10014002,10014003,10015003,10015002,11014002,11014003,11015003,11015002
2763,10014003,10014004,10015004,10015003,11014003,11014004,11015004,11015003
2764,10014004,10014005,10015005,10015004,11014004,11014005,11015005,11015004
2765,10014005,10014006,10015006,10015005,11014005,11014006,11015006,11015005
2766,10014006,10014007,10015007,10015006,11014006,11014007,11015007,11015006
2767,10014007,10014008,10015008,10015007,11014007,11014008,11015008,11015007
2768,10014008,10014009,10015009,10015008,11014008,11014009,11015009,11015008
2769,10014009,10014010,10015010,10015009,11014009,11014010,11015010,11015009
2770,10014010,10014011,10015011,10015010,11014010,11014011,11015011,11015010
2771,10014011,10014012,10015012,10015011,11014011,11014012,11015012,11015011
2772,10014012,10014013,10015013,10015012,11014012,11014013,11015013,11015012
2773,10014013,10014014,10015014,10015013,11014013,11014014,11015014,11015013
2774,10014014,10014015,10015015,10015014,11014014,11014015,11015015,11015014
2775,10014015,10014016,10015016,10015015,11014015,11014016,11015016,11015015
2776,10014016,10014017,10015017,10015016,11014016,11014017,11015017,11015016
2777,10014017,10014018,10015018,10015017,11014017,11014018,11015018,11015017
2778,10014018,10014019,10015019,10015018,11014018,11014019,11015019,11015018
2779,10014019,10014020,10015020,10015019,11014019,11014020,11015020,11015019
2780,10014020,10014021,10015021,10015020,11014020,11014021,11015021,11015020
2781,10015001,10015002,10016002,10016001,11015001,11015002,11016002,11016001
2782,10015002,10015003,10016003,10016002,11015002,11015003,11016003,11016002
2783,10015003,10015004,10016004,10016003,11015003,11015004,11016004,11016003
2784,10015004,10015005,10016005,10016004,11015004,11015005,11016005,11016004
2785,10015005,10015006,10016006,10016005,11015005,11015006,11016006,11016005
2786,10015006,10015007,10016007,10016006,11015006,11015007,11016007,11016006
2787,10015007,10015008,10016008,10016007,11015007,11015008,11016008,11016007
2788,10015008,10015009,10016009,10016008,11015008,11015009,11016009,11016008
2789,10015009,10015010,10016010,10016009,11015009,11015010,11016010,11016009
2790,10015010,10015011,10016011,10016010,11015010,11015011,11016011,11016010
2791,10015011,10015012,10016012,10016011,11015011,11015012,11016012,11016011
2792,10015012,10015013,10016013,10016012,11015012,11015013,11016013,11016012
2793,10015013,10015014,10016014,10016013,11015013,11015014,11016014,11016013
2794,10015014,10015015,10016015,10016014,11015014,11015015,11016015,11016014
2795,10015015,10015016,10016016,10016015,11015015,11015016,11016016,11016015
2796,10015016,10015017,10016017,10016016,11015016,11015017,11016017,11016016
2797,10015017,10015018,10016018,10016017,11015017,11015018,11016018,11016017
2798,10015018,10015019,10016019,10016018,11015018,11015019,11016019,11016018
2799,10015019,10015020,10016020,10016019,11015019,11015020,11016020,11016019
2800,10015020,10015021,10016021,10016020,11015020,11015021,11016021,11016020
2801,10016001,10016002,10017002,10017001,11016001,11016002,11017002,11017001
2802,10016002,10016003,10017003,10017002,11016002,11016003,11017003,11017002
2803,10016003,10016004,10017004,10017003,11016003,11016004,11017004,11017003
2804,10016004,10016005,10017005,10017004,11016004,11016005,11017005,11017004
2805,10016005,10016006,10017006,10017005,11016005,11016006,11017006,11017005
2806,10016006,10016007,10017007,10017006,11016006,11016007,11017007,11017006
2807,10016007,10016008,10017008,10017007,11016007,11016008,11017008,11017007
2808,10016008,10016009,10017009,10017008,11016008,11016009,11017009,11017008
2809,10016009,10016010,10017010,10017009,11016009,11016010,11017010,11017009
2810,10016010,10016011,10017011,10017010,11016010,11016011,11017011,11017010
2811,10016011,10016012,10017012,10017011,11016011,11016012,11017012,11017011
2812,10016012,10016013,10017013,10017012,11016012,11016013,11017013,11017012
2813,10016013,10016014,10017014,10017013,11016013,11016014,11017014,11017013
2814,10016014,10016015,10017015,10017014,11016014,11016015,11017015,11017014
2815,10016015,10016016,10017016,10017015,11016015,11016016,11017016,11017015
2816,10016016,10016017,10017017,10017016,11016016,11016017,11017017,11017016
2817,10016017,10016018,10017018,10017017,11016017,11016018,11017018,11017017
2818,10016018,10016019,10017019,10017018,11016018,11016019,11017019,11017018
2819,10016019,10016020,10017020,10017019,11016019,11016020,11017020,11017019
2820,10016020,10016021,10017021,10017020,11016020,11016021,11017021,11017020
2821,10017001,10017002,10018002,10018001,11017001,11017002,11018002,11018001
2822,10017002,10017003,10018003,10018002,11017002,11017003,11018003,11018002
2823,10017003,10017004,10018004,10018003,11017003,11017004,11018004,11018003
2824,10017004,10017005,10018005,10018004,11017004,11017005,11018005,11018004
2825,10017005,10017006,10018006,10018005,11017005,11017006,11018006,11018005
2826,10017006,10017007,10018007,10018006,11017006,11017007,11018007,11018006
2827,10017007,10017008,10018008,10018007,11017007,11017008,11018008,11018007
2828,10017008,10017009,10018009,10018008,11017008,11017009,11018009,11018008
2829,10017009,10017010,10018010,10018009,11017009,11017010,11018010,11018009
2830,10017010,10017011,10018011,10018010,11017010,11017011,11018011,11018010
2831,10017011,10017012,10018012,10018011,11017011,11017012,11018012,11018011
2832,10017012,10017013,10018013,10018012,11017012,11017013,11018013,11018012
2833,10017013,10017014,10018014,10018013,11017013,11017014,11018014,11018013
2834,10017014,10017015,10018015,10018014,11017014,11017015,11018015,11018014
2835,10017015,10017016,10018016,10018015,11017015,11017016,11018016,11018015
2836,10017016,10017017,10018017,10018016,11017016,11017017,11018017,11018016
2837,10017017,10017018,10018018,10018017,11017017,11017018,11018018,11018017
2838,10017018,10017019,10018019,10018018,11017018,11017019,11018019,11018018
2839,10017019,10017020,10018020,10018019,11017019,11017020,11018020,11018019
2840,10017020,10017021,10018021,10018020,11017020,11017021,11018021,11018020
2841,10018001,10018002,10019002,10019001,11018001,11018002,11019002,11019001
2842,10018002,10018003,10019003,10019002,11018002,11018003,11019003,11019002
2843,10018003,10018004,10019004,10019003,11018003,11018004,11019004,11019003
2844,10018004,10018005,10019005,10019004,11018004,11018005,11019005,11019004
2845,10018005,10018006,10019006,10019005,11018005,11018006,11019006,11019005
2846,10018006,10018007,10019007,10019006,11018006,11018007,11019007,11019006
2847,10018007,10018008,10019008,10019007,11018007,11018008,11019008,11019007
2848,10018008,10018009,10019009,10019008,11018008,11018009,11019009,11019008
2849,10018009,10018010,10019010,10019009,11018009,11018010,11019010,11019009
2850,10018010,10018011,10019011,10019010,11018010,11018011,11019011,11019010
2851,10018011,10018012,10019012,10019011,11018011,11018012,11019012,11019011
2852,10018012,10018013,10019013,10019012,11018012,11018013,11019013,11019012
2853,10018013,10018014,10019014,10019013,11018013,11018014,11019014,11019013
2854,10018014,10018015,10019015,10019014,11018014,11018015,11019015,11019014
2855,10018015,10018016,10019016,10019015,11018015,11018016,11019016,11019015
2856,10018016,10018017,10019017,10019016,11018016,11018017,11019017,11019016
2857,10018017,10018018,10019018,10019017,11018017,11018018,11019018,11019017
2858,10018018,10018019,10019019,10019018,11018018,11018019,11019019,11019018
2859,10018019,10018020,10019020,10019019,11018019,11018020,11019020,11019019
2860,10018020,10018021,10019021,10019020,11018020,11018021,11019021,11019020
2861,10019001,10019002,10020002,10020001,11019001,11019002,11020002,11020001
2862,10019002,10019003,10020003,10020002,11019002,11019003,11020003,11020002
2863,10019003,10019004,10020004,10020003,11019003,11019004,11020004,11020003
2864,10019004,10019005,10020005,10020004,11019004,11019005,11020005,11020004
2865,10019005,10019006,10020006,10020005,11019005,11019006,11020006,11020005
2866,10019006,10019007,10020007,10020006,11019006,11019007,11020007,11020006
2867,10019007,10019008,10020008,10020007,11019007,11019008,11020008,11020007
2868,10019008,10019009,10020009,10020008,11019008,11019009,11020009,11020008
2869,10019009,10019010,10020010,10020009,11019009,11019010,11020010,11020009
2870,10019010,10019011,10020011,10020010,11019010,11019011,11020011,11020010
2871,10019011,10019012,10020012,10020011,11019011,11019012,11020012,11020011
2872,10019012,10019013,10020013,10020012,11019012,11019013,11020013,11020012
2873,10019013,10019014,10020014,10020013,11019013,11019014,11020014,11020013
2874,10019014,10019015,10020015,10020014,11019014,11019015,11020015,11020014
2875,10019015,10019016,10020016,10020015,11019015,11019016,11020016,11020015
2876,10019016,10019017,10020017,10020016,11019016,11019017,11020017,11020016
2877,10019017,10019018,10020018,10020017,11019017,11019018,11020018,11020017
2878,10019018,10019019,10020019,10020018,11019018,11019019,11020019,11020018
2879,10019019,10019020,10020020,10020019,11019019,11019020,11020020,11020019
2880,10019020,10019021,10020021,10020020,11019020,11019021,11020021,11020020
2881,11000001,11000002,11001002,11001001,12000001,12000002,12001002,12001001
2882,11000002,11000003,11001003,11001002,12000002,12000003,12001003,12001002
2883,11000003,11000004,11001004,11001003,12000003,12000004,12001004,12001003
2884,11000004,11000005,11001005,11001004,12000004,12000005,12001005,12001004
2885,11000005,11000006,11001006,11001005,12000005,12000006,12001006,12001005
2886,11000006,11000007,11001007,11001006,12000006,12000007,12001007,12001006
2887,11000007,11000008,11001008,11001007,12000007,12000008,12001008,12001007
2888,11000008,11000009,11001009,11001008,12000008,12000009,12001009,12001008
2889,11000009,11000010,11001010,11001009,12000009,12000010,12001010,12001009
2890,11000010,11000011,11001011,11001010,12000010,12000011,12001011,12001010
2891,11000011,11000012,11001012,11001011,12000011,12000012,12001012,12001011
2892,11000012,11000013,11001013,11001012,12000012,12000013,12001013,12001012
2893,11000013,11000014,11001014,11001013,12000013,12000014,12001014,12001013
2894,11000014,11000015,11001015,11001014,12000014,12000015,12001015,12001014
2895,11000015,11000016,11001016,11001015,12000015,12000016,12001016,12001015
2896,11000016,11000017,11001017,11001016,12000016,12000017,12001017,12001016
2897,11000017,11000018,11001018,11001017,12000017,12000018,12001018,12001017
2898,11000018,11000019,11001019,11001018,12000018,12000019,12001019,12001018
2899,11000019,11000020,11001020,11001019,12000019,12000020,12001020,12001019
2900,11000020,11000021,11001021,11001020,12000020,12000021,12001021,12001020
2901,11001001,11001002,11002002,11002001,12001001,12001002,12002002,12002001
2902,11001002,11001003,11002003,11002002,12001002,12001003,12002003,12002002
2903,11001003,11001004,11002004,11002003,12001003,12001004,12002004,12002003
2904,11001004,11001005,11002005,11002004,12001004,12001005,12002005,12002004
2905,11001005,11001006,11002006,11002005,12001005,12001006,12002006,12002005
2906,11001006,11001007,11002007,11002006,12001006,12001007,12002007,12002006
2907,11001007,11001008,11002008,11002007,12001007,12001008,12002008,12002007
2908,11001008,11001009,11002009,11002008,12001008,12001009,12002009,12002008
2909,11001009,11001010,11002010,11002009,12001009,12001010,12002010,12002009
2910,11001010,11001011,11002011,11002010,12001010,12001011,12002011,12002010
2911,11001011,11001012,11002012,11002011,12001011,12001012,12002012,12002011
2912,11001012,11001013,11002013,11002012,12001012,12001013,12002013,12002012
2913,11001013,11001014,11002014,11002013,12001013,12001014,12002014,12002013
2914,11001014,11001015,11002015,11002014,12001014,12001015,12002015,12002014
2915,11001015,11001016,11002016,11002015,12001015,12001016,12002016,12002015
2916,11001016,11001017,11002017,11002016,12001016,12001017,12002017,12002016
2917,11001017,11001018,11002018,11002017,12001017,12001018,12002018,12002017
2918,11001018,11001019,11002019,11002018,12001018,12001019,12002019,12002018
2919,11001019,11001020,11002020,11002019,12001019,12001020,12002020,12002019
2920,11001020,11001021,11002021,11002020,12001020,12001021,12002021,12002020
2921,11002001,11002002,11003002,11003001,12002001,12002002,12003002,12003001
2922,11002002,11002003,11003003,11003002,12002002,12002003,12003003,12003002
2923,11002003,11002004,11003004,11003003,12002003,12002004,12003004,12003003
2924,11002004,11002005,11003005,11003004,12002004,12002005,12003005,12003004
2925,11002005,11002006,11003006,11003005,12002005,12002006,12003006,12003005
2926,11002006,11002007,11003007,11003006,12002006,12002007,12003007,12003006
2927,11002007,11002008,11003008,11003007,12002007,12002008,12003008,12003007
2928,11002008,11002009,11003009,11003008,12002008,12002009,12003009,12003008
2929,11002009,11002010,11003010,11003009,12002009,12002010,12003010,12003009
2930,11002010,11002011,11003011,11003010,12002010,12002011,12003011,12003010
2931,11002011,11002012,11003012,11003011,12002011,12002012,12003012,12003011
2932,11002012,11002013,11003013,11003012,12002012,12002013,12003013,12003012
2933,11002013,11002014,11003014,11003013,12002013,12002014,12003014,12003013
2934,11002014,11002015,11003015,11003014,12002014,12002015,12003015,12003014
2935,11002015,11002016,11003016,11003015,12002015,12002016,12003016,12003015
2936,11002016,11002017,11003017,11003016,12002016,12002017,12003017,12003016
2937,11002017,11002018,11003018,11003017,12002017,12002018,12003018,12003017
2938,11002018,11002019,11003019,11003018,12002018,12002019,12003019,12003018
2939,11002019,11002020,11003020,11003019,12002019,12002020,12003020,12003019
2940,11002020,11002021,11003021,11003020,12002020,12002021,12003021,12003020
2941,11003001,11003002,11004002,11004001,12003001,12003002,12004002,12004001
2942,11003002,11003003,11004003,11004002,12003002,12003003,12004003,12004002
2943,11003003,11003004,11004004,11004003,12003003,12003004,12004004,12004003
2944,11003004,11003005,11004005,11004004,12003004,12003005,12004005,12004004
2945,11003005,11003006,11004006,11004005,12003005,12003006,12004006,12004005
2946,11003006,11003007,11004007,11004006,12003006,12003007,12004007,12004006
2947,11003007,11003008,11004008,11004007,12003007,12003008,12004008,12004007
2948,11003008,11003009,11004009,11004008,12003008,12003009,12004009,12004008
2949,11003009,11003010,11004010,11004009,12003009,12003010,12004010,12004009
2950,11003010,11003011,11004011,11004010,12003010,12003011,12004011,12004010
2951,11003011,11003012,11004012,11004011,12003011,12003012,12004012,12004011
2952,11003012,11003013,11004013,11004012,12003012,12003013,12004013,12004012
2953,11003013,11003014,11004014,11004013,12003013,12003014,12004014,12004013
2954,11003014,11003015,11004015,11004014,12003014,12003015,12004015,12004014
2955,11003015,11003016,11004016,11004015,12003015,12003016,12004016,12004015
2956,11003016,11003017,11004017,11004016,12003016,12003017,12004017,12004016
2957,11003017,11003018,11004018,11004017,12003017,12003018,12004018,12004017
2958,11003018,11003019,11004019,11004018,12003018,12003019,12004019,12004018
2959,11003019,11003020,11004020,11004019,12003019,12003020,12004020,12004019
2960,11003020,11003021,11004021,11004020,12003020,12003021,12004021,12004020
2961,11004001,11004002,11005002,11005001,12004001,12004002,12005002,12005001
2962,11004002,11004003,11005003,11005002,12004002,12004003,12005003,12005002
2963,11004003,11004004,11005004,11005003,12004003,12004004,12005004,12005003
2964,11004004,11004005,11005005,11005004,12004004,12004005,12005005,12005004
2965,11004005,11004006,11005006,11005005,12004005,12004006,12005006,12005005
2966,11004006,11004007,11005007,11005006,12004006,12004007,12005007,12005006
2967,11004007,11004008,11005008,11005007,12004007,12004008,12005008,12005007
2968,11004008,11004009,11005009,11005008,12004008,12004009,12005009,12005008
2969,11004009,11004010,11005010,11005009,12004009,12004010,12005010,12005009
2970,11004010,11004011,11005011,11005010,12004010,12004011,12005011,12005010
2971,11004011,11004012,11005012,11005011,12004011,12004012,12005012,12005011
2972,11004012,11004013,11005013,11005012,12004012,12004013,12005013,12005012
2973,11004013,11004014,11005014,11005013,12004013,12004014,12005014,12005013
2974,11004014,11004015,11005015,11005014,12004014,12004015,12005015,12005014
2975,11004015,11004016,11005016,11005015,12004015,12004016,12005016,12005015
2976,11004016,11004017,11005017,11005016,12004016,12004017,12005017,12005016
2977,11004017,11004018,11005018,11005017,12004017,12004018,12005018,12005017
2978,11004018,11004019,11005019,11005018,12004018,12004019,12005019,12005018
2979,11004019,11004020,11005020,11005019,12004019,12004020,12005020,12005019
2980,11004020,11004021,11005021,11005020,12004020,12004021,12005021,12005020
2981,11005001,11005002,11006002,11006001,12005001,12005002,12006002,12006001
2982,11005002,11005003,11006003,11006002,12005002,12005003,12006003,12006002
2983,11005003,11005004,11006004,11006003,12005003,12005004,12006004,12006003
2984,11005004,11005005,11006005,11006004,12005004,12005005,12006005,12006004
2985,11005005,11005006,11006006,11006005,12005005,12005006,12006006,12006005
2986,11005006,11005007,11006007,11006006,12005006,12005007,12006007,12006006
2987,11005007,11005008,11006008,11006007,12005007,12005008,12006008,12006007
2988,11005008,11005009,11006009,11006008,12005008,12005009,12006009,12006008
2989,11005009,11005010,11006010,11006009,12005009,12005010,12006010,12006009
2990,11005010,11005011,11006011,11006010,12005010,12005011,12006011,12006010
2991,11005011,11005012,11006012,11006011,12005011,12005012,12006012,12006011
2992,11005012,11005013,11006013,11006012,12005012,12005013,12006013,12006012
2993,11005013,11005014,11006014,11006013,12005013,12005014,12006014,12006013
2994,11005014,11005015,11006015,11006014,12005014,12005015,12006015,12006014
2995,11005015,11005016,11006016,11006015,12005015,12005016,12006016,12006015
2996,11005016,11005017,11006017,11006016,12005016,12005017,12006017,12006016
2997,11005017,11005018,11006018,11006017,12005017,12005018,12006018,12006017
2998,11005018,11005019,11006019,11006018,12005018,12005019,12006019,12006018
2999,11005019,11005020,11006020,11006019,12005019,12005020,12006020,12006019
3000,11005020,11005021,11006021,11006020,12005020,12005021,12006021,12006020
3001,11006001,11006002,11007002,11007001,12006001,12006002,12007002,12007001
3002,11006002,11006003,11007003,11007002,12006002,12006003,12007003,12007002
3003,11006003,11006004,11007004,11007003,12006003,12006004,12007004,12007003
3004,11006004,11006005,11007005,11007004,12006004,12006005,12007005,12007004
3005,11006005,11006006,11007006,11007005,12006005,12006006,12007006,12007005
3006,11006006,11006007,11007007,11007006,12006006,12006007,12007007,12007006
3007,11006007,11006008,11007008,11007007,12006007,12006008,12007008,12007007
3008,11006008,11006009,11007009,11007008,12006008,12006009,12007009,12007008
3009,11006009,11006010,11007010,11007009,12006009,12006010,12007010,12007009
3010,11006010,11006011,11007011,11007010,12006010,12006011,12007011,12007010
3011,11006011,11006012,11007012,11007011,12006011,12006012,12007012,12007011
3012,11006012,11006013,11007013,11007012,12006012,12006013,12007013,12007012
3013,11006013,11006014,11007014,11007013,12006013,12006014,12007014,12007013
3014,11006014,11006015,11007015,11007014,12006014,12006015,12007015,12007014
3015,11006015,11006016,11007016,11007015,12006015,12006016,12007016,12007015
3016,11006016,11006017,11007017,11007016,12006016,12006017,12007017,12007016
3017,11006017,11006018,11007018,11007017,12006017,12006018,12007018,12007017
3018,11006018,11006019,11007019,11007018,12006018,12006019,12007019,12007018
3019,11006019,11006020,11007020,11007019,12006019,12006020,12007020,12007019
3020,11006020,11006021,11007021,11007020,12006020,12006021,12007021,12007020
3021,11007001,11007002,11008002,11008001,12007001,12007002,12008002,12008001
3022,11007002,11007003,11008003,11008002,12007002,12007003,12008003,12008002
3023,11007003,11007004,11008004,11008003,12007003,12007004,12008004,12008003
3024,11007004,11007005,11008005,11008004,12007004,12007005,12008005,12008004
3025,11007005,11007006,11008006,11008005,12007005,12007006,12008006,12008005
3026,11007006,11007007,11008007,11008006,12007006,12007007,12008007,12008006
3027,11007007,11007008,11008008,11008007,12007007,12007008,12008008,12008007
3028,11007008,11007009,11008009,11008008,12007008,12007009,12008009,12008008
3029,11007009,11007010,11008010,11008009,12007009,12007010,12008010,12008009
3030,11007010,11007011,11008011,11008010,12007010,12007011,12008011,12008010
3031,11007011,11007012,11008012,11008011,12007011,12007012,12008012,12008011
3032,11007012,11007013,11008013,11008012,12007012,12007013,12008013,12008012
3033,11007013,11007014,11008014,11008013,12007013,12007014,12008014,12008013
3034,11007014,11007015,11008015,11008014,12007014,12007015,12008015,12008014
3035,11007015,11007016,11008016,11008015,12007015,12007016,12008016,12008015
3036,11007016,11007017,11008017,11008016,12007016,12007017,12008017,12008016
3037,11007017,11007018,11008018,11008017,12007017,12007018,12008018,12008017
3038,11007018,11007019,11008019,11008018,12007018,12007019,12008019,12008018
3039,11007019,11007020,11008020,11008019,12007019,12007020,12008020,12008019
3040,11007020,11007021,11008021,11008020,12007020,12007021,12008021,12008020
3041,11008001,11008002,11009002,11009001,12008001,12008002,12009002,12009001
3042,11008002,11008003,11009003,11009002,12008002,12008003,12009003,12009002
3043,11008003,11008004,11009004,11009003,12008003,12008004,12009004,12009003
3044,11008004,11008005,11009005,11009004,12008004,12008005,12009005,12009004
3045,11008005,11008006,11009006,11009005,12008005,12008006,12009006,12009005
3046,11008006,11008007,11009007,11009006,12008006,12008007,12009007,12009006
3047,11008007,11008008,11009008,11009007,12008007,12008008,12009008,12009007
3048,11008008,11008009,11009009,11009008,12008008,12008009,12009009,12009008
3049,11008009,11008010,11009010,11009009,12008009,12008010,12009010,12009009
3050,11008010,11008011,11009011,11009010,12008010,12008011,12009011,12009010
3051,11008011,11008012,11009012,11009011,12008011,12008012,12009012,12009011
3052,11008012,11008013,11009013,11009012,12008012,12008013,12009013,12009012
3053,11008013,11008014,11009014,11009013,12008013,12008014,12009014,12009013
3054,11008014,11008015,11009015,11009014,12008014,12008015,12009015,12009014
3055,11008015,11008016,11009016,11009015,12008015,12008016,12009016,12009015
3056,11008016,11008017,11009017,11009016,12008016,12008017,12009017,12009016
3057,11008017,11008018,11009018,11009017,12008017,12008018,12009018,12009017
3058,11008018,11008019,11009019,11009018,12008018,12008019,12009019,12009018
3059,11008019,11008020,11009020,11009019,12008019,12008020,12009020,12009019
3060,11008020,11008021,11009021,11009020,12008020,12008021,12009021,12009020
3061,11009001,11009002,11010002,11010001,12009001,12009002,12010002,12010001
3062,11009002,11009003,11010003,11010002,12009002,12009003,12010003,12010002
3063,11009003,11009004,11010004,11010003,12009003,12009004,12010004,12010003
3064,11009004,11009005,11010005,11010004,12009004,12009005,12010005,12010004
3065,11009005,11009006,11010006,11010005,12009005,12009006,12010006,12010005
3066,11009006,11009007,11010007,11010006,12009006,12009007,12010007,12010006
3067,11009007,11009008,11010008,11010007,12009007,12009008,12010008,12010007
3068,11009008,11009009,11010009,11010008,12009008,12009009,12010009,12010008
3069,11009009,11009010,11010010,11010009,12009009,12009010,12010010,12010009
3070,11009010,11009011,11010011,11010010,12009010,12009011,12010011,12010010
3071,11009011,11009012,11010012,11010011,12009011,12009012,12010012,12010011
3072,11009012,11009013,11010013,11010012,12009012,12009013,12010013,12010012
3073,11009013,11009014,11010014,11010013,12009013,12009014,12010014,12010013
3074,11009014,11009015,11010015,11010014,12009014,12009015,12010015,12010014
3075,11009015,11009016,11010016,11010015,12009015,12009016,12010016,12010015
3076,11009016,11009017,11010017,11010016,12009016,12009017,12010017,12010016
3077,11009017,11009018,11010018,11010017,12009017,12009018,12010018,12010017
3078,11009018,11009019,11010019,11010018,12009018,12009019,12010019,12010018
3079,11009019,11009020,11010020,11010019,12009019,12009020,12010020,12010019
3080,11009020,11009021,11010021,11010020,12009020,12009021,12010021,12010020
3081,11010001,11010002,11011002,11011001,12010001,12010002,12011002,12011001
3082,11010002,11010003,11011003,11011002,12010002,12010003,12011003,12011002
3083,11010003,11010004,11011004,11011003,12010003,12010004,12011004,12011003
3084,11010004,11010005,11011005,11011004,12010004,12010005,12011005,12011004
3085,11010005,11010006,11011006,11011005,12010005,12010006,12011006,12011005
3086,11010006,11010007,11011007,11011006,12010006,12010007,12011007,12011006
3087,11010007,11010008,11011008,11011007,12010007,12010008,12011008,12011007
3088,11010008,11010009,11011009,11011008,12010008,12010009,12011009,12011008
3089,11010009,11010010,11011010,11011009,12010009,12010010,12011010,12011009
3090,11010010,11010011,11011011,11011010,12010010,12010011,12011011,12011010
3091,11010011,11010012,11011012,11011011,12010011,12010012,12011012,12011011
3092,11010012,11010013,11011013,11011012,12010012,12010013,12011013,12011012
3093,11010013,11010014,11011014,11011013,12010013,12010014,12011014,12011013
3094,11010014,11010015,11011015,11011014,12010014,12010015,12011015,12011014
3095,11010015,11010016,11011016,11011015,12010015,12010016,12011016,12011015
3096,11010016,11010017,11011017,11011016,12010016,12010017,12011017,12011016
3097,11010017,11010018,11011018,11011017,12010017,12010018,12011018,12011017
3098,11010018,11010019,11011019,11011018,12010018,12010019,12011019,12011018
3099,11010019,11010020,11011020,11011019,12010019,12010020,12011020,12011019
3100,11010020,11010021,11011021,11011020,12010020,12010021,12011021,12011020
3101,11011001,11011002,11012002,11012001,12011001,12011002,12012002,12012001
3102,11011002,11011003,11012003,11012002,12011002,12011003,12012003,12012002
3103,11011003,11011004,11012004,11012003,12011003,12011004,12012004,12012003
3104,11011004,11011005,11012005,11012004,12011004,12011005,12012005,12012004
3105,11011005,11011006,11012006,11012005,12011005,12011006,12012006,12012005
3106,11011006,11011007,11012007,11012006,12011006,12011007,12012007,12012006
3107,11011007,11011008,11012008,11012007,12011007,12011008,12012008,12012007
3108,11011008,11011009,11012009,11012008,12011008,12011009,12012009,12012008
3109,11011009,11011010,11012010,11012009,12011009,12011010,12012010,12012009
3110,11011010,11011011,11012011,11012010,12011010,12011011,12012011,12012010
3111,11011011,11011012,11012012,11012011,12011011,12011012,12012012,12012011
3112,11011012,11011013,11012013,11012012,12011012,12011013,12012013,12012012
3113,11011013,11011014,11012014,11012013,12011013,12011014,12012014,12012013
3114,11011014,11011015,11012015,11012014,12011014,12011015,12012015,12012014
3115,11011015,11011016,11012016,11012015,12011015,12011016,12012016,12012015
3116,11011016,11011017,11012017,11012016,12011016,12011017,12012017,12012016
3117,11011017,11011018,11012018,11012017,12011017,12011018,12012018,12012017
3118,11011018,11011019,11012019,11012018,12011018,12011019,12012019,12012018
3119,11011019,11011020,11012020,11012019,12011019,12011020,12012020,12012019
3120,11011020,11011021,11012021,11012020,12011020,12011021,12012021,12012020
3121,11012001,11012002,11013002,11013001,12012001,12012002,12013002,12013001
3122,11012002,11012003,11013003,11013002,12012002,12012003,12013003,12013002
3123,11012003,11012004,11013004,11013003,12012003,12012004,12013004,12013003
3124,11012004,11012005,11013005,11013004,12012004,12012005,12013005,12013004
3125,11012005,11012006,11013006,11013005,12012005,12012006,12013006,12013005
3126,11012006,11012007,11013007,11013006,12012006,12012007,12013007,12013006
3127,11012007,11012008,11013008,11013007,12012007,12012008,12013008,12013007
3128,11012008,11012009,11013009,11013008,12012008,12012009,12013009,12013008
3129,11012009,11012010,11013010,11013009,12012009,12012010,12013010,12013009
3130,11012010,11012011,11013011,11013010,12012010,12012011,12013011,12013010
3131,11012011,11012012,11013012,11013011,12012011,12012012,12013012,12013011
3132,11012012,11012013,11013013,11013012,12012012,12012013,12013013,12013012
3133,11012013,11012014,11013014,11013013,12012013,12012014,12013014,12013013
3134,11012014,11012015,11013015,11013014,12012014,12012015,12013015,12013014
3135,11012015,11012016,11013016,11013015,12012015,12012016,12013016,12013015
3136,11012016,11012017,11013017,11013016,12012016,12012017,12013017,12013016
3137,11012017,11012018,11013018,11013017,12012017,12012018,12013018,12013017
3138,11012018,11012019,11013019,11013018,12012018,12012019,12013019,12013018
3139,11012019,11012020,11013020,11013019,12012019,12012020,12013020,12013019
3140,11012020,11012021,11013021,11013020,12012020,12012021,12013021,12013020
3141,11013001,11013002,11014002,11014001,12013001,12013002,12014002,12014001
3142,11013002,11013003,11014003,11014002,12013002,12013003,12014003,12014002
3143,11013003,11013004,11014004,11014003,12013003,12013004,12014004,12014003
3144,11013004,11013005,11014005,11014004,12013004,12013005,12014005,12014004
3145,11013005,11013006,11014006,11014005,12013005,12013006,12014006,12014005
3146,11013006,11013007,11014007,11014006,12013006,12013007,12014007,12014006
3147,11013007,11013008,11014008,11014007,12013007,12013008,12014008,12014007
3148,11013008,11013009,11014009,11014008,12013008,12013009,12014009,12014008
3149,11013009,11013010,11014010,11014009,12013009,12013010,12014010,12014009
3150,11013010,11013011,11014011,11014010,12013010,12013011,12014011,12014010
3151,11013011,11013012,11014012,11014011,12013011,12013012,12014012,12014011
3152,11013012,11013013,11014013,11014012,12013012,12013013,12014013,12014012
3153,11013013,11013014,11014014,11014013,12013013,12013014,12014014,12014013
3154,11013014,11013015,11014015,11014014,12013014,12013015,12014015,12014014
3155,11013015,11013016,11014016,11014015,12013015,12013016,12014016,12014015
3156,11013016,11013017,11014017,11014016,12013016,12013017,12014017,12014016
3157,11013017,11013018,11014018,11014017,12013017,12013018,12014018,12014017
3158,11013018,11013019,11014019,11014018,12013018,12013019,12014019,12014018
3159,11013019,11013020,11014020,11014019,12013019,12013020,12014020,12014019
3160,11013020,11013021,11014021,11014020,12013020,12013021,12014021,12014020
3161,11014001,11014002,11015002,11015001,12014001,12014002,12015002,12015001
3162,11014002,11014003,11015003,11015002,12014002,12014003,12015003,12015002
3163,11014003,11014004,11015004,11015003,12014003,12014004,12015004,12015003
3164,11014004,11014005,11015005,11015004,12014004,12014005,12015005,12015004
3165,11014005,11014006,11015006,11015005,12014005,12014006,12015006,12015005
3166,11014006,11014007,11015007,11015006,12014006,12014007,12015007,12015006
3167,11014007,11014008,11015008,11015007,12014007,12014008,12015008,12015007
3168,11014008,11014009,11015009,11015008,12014008,12014009,12015009,12015008
3169,11014009,11014010,11015010,11015009,12014009,12014010,12015010,12015009
3170,11014010,11014011,11015011,11015010,12014010,12014011,12015011,12015010
3171,11014011,11014012,11015012,11015011,12014011,12014012,12015012,12015011
3172,11014012,11014013,11015013,11015012,12014012,12014013,12015013,12015012
3173,11014013,11014014,11015014,11015013,12014013,12014014,12015014,12015013
3174,11014014,11014015,11015015,11015014,12014014,12014015,12015015,12015014
3175,11014015,11014016,11015016,11015015,12014015,12014016,12015016,12015015
3176,11014016,11014017,11015017,11015016,12014016,12014017,12015017,12015016
3177,11014017,11014018,11015018,11015017,12014017,12014018,12015018,12015017
3178,11014018,11014019,11015019,11015018,12014018,12014019,12015019,12015018
3179,11014019,11014020,11015020,11015019,12014019,12014020,12015020,12015019
3180,11014020,11014021,11015021,11015020,12014020,12014021,12015021,12015020
3181,11015001,11015002,11016002,11016001,12015001,12015002,12016002,12016001
3182,11015002,11015003,11016003,11016002,12015002,12015003,12016003,12016002
3183,11015003,11015004,11016004,11016003,12015003,12015004,12016004,12016003
3184,11015004,11015005,11016005,11016004,12015004,12015005,12016005,12016004
3185,11015005,11015006,11016006,11016005,12015005,12015006,12016006,12016005
3186,11015006,11015007,11016007,11016006,12015006,12015007,12016007,12016006
3187,11015007,11015008,11016008,11016007,12015007,12015008,12016008,12016007
3188,11015008,11015009,11016009,11016008,12015008,12015009,12016009,12016008
3189,11015009,11015010,11016010,11016009,12015009,12015010,12016010,12016009
3190,11015010,11015011,11016011,11016010,12015010,12015011,12016011,12016010
3191,11015011,11015012,11016012,11016011,12015011,12015012,12016012,12016011
3192,11015012,11015013,11016013,11016012,12015012,12015013,12016013,12016012
3193,11015013,11015014,11016014,11016013,12015013,12015014,12016014,12016013
3194,11015014,11015015,11016015,11016014,12015014,12015015,12016015,12016014
3195,11015015,11015016,11016016,11016015,12015015,12015016,12016016,12016015
3196,11015016,11015017,11016017,11016016,12015016,12015017,12016017,12016016
3197,11015017,11015018,11016018,11016017,12015017,12015018,12016018,12016017
3198,11015018,11015019,11016019,11016018,12015018,12015019,12016019,12016018
3199,11015019,11015020,11016020,11016019,12015019,12015020,12016020,12016019
3200,11015020,11015021,11016021,11016020,12015020,12015021,12016021,12016020
3201,11016001,11016002,11017002,11017001,12016001,12016002,12017002,12017001
3202,11016002,11016003,11017003,11017002,12016002,12016003,12017003,12017002
3203,11016003,11016004,11017004,11017003,12016003,12016004,12017004,12017003
3204,11016004,11016005,11017005,11017004,12016004,12016005,12017005,12017004
3205,11016005,11016006,11017006,11017005,12016005,12016006,12017006,12017005
3206,11016006,11016007,11017007,11017006,12016006,12016007,12017007,12017006
3207,11016007,11016008,11017008,11017007,12016007,12016008,12017008,12017007
3208,11016008,11016009,11017009,11017008,12016008,12016009,12017009,12017008
3209,11016009,11016010,11017010,11017009,12016009,12016010,12017010,12017009
3210,11016010,11016011,11017011,11017010,12016010,12016011,12017011,12017010
3211,11016011,11016012,11017012,11017011,12016011,12016012,12017012,12017011
3212,11016012,11016013,11017013,11017012,12016012,12016013,12017013,12017012
3213,11016013,11016014,11017014,11017013,12016013,12016014,12017014,12017013
3214,11016014,11016015,11017015,11017014,12016014,12016015,12017015,12017014
3215,11016015,11016016,11017016,11017015,12016015,12016016,12017016,12017015
3216,11016016,11016017,11017017,11017016,12016016,12016017,12017017,12017016
3217,11016017,11016018,11017018,11017017,12016017,12016018,12017018,12017017
3218,11016018,11016019,11017019,11017018,12016018,12016019,12017019,12017018
3219,11016019,11016020,11017020,11017019,12016019,12016020,12017020,12017019
3220,11016020,11016021,11017021,11017020,12016020,12016021,12017021,12017020
3221,11017001,11017002,11018002,11018001,12017001,12017002,12018002,12018001
3222,11017002,11017003,11018003,11018002,12017002,12017003,12018003,12018002
3223,11017003,11017004,11018004,11018003,12017003,12017004,12018004,12018003
3224,11017004,11017005,11018005,11018004,12017004,12017005,12018005,12018004
3225,11017005,11017006,11018006,11018005,12017005,12017006,12018006,12018005
3226,11017006,11017007,11018007,11018006,12017006,12017007,12018007,12018006
3227,11017007,11017008,11018008,11018007,12017007,12017008,12018008,12018007
3228,11017008,11017009,11018009,11018008,12017008,12017009,12018009,12018008
3229,11017009,11017010,11018010,11018009,12017009,12017010,12018010,12018009
3230,11017010,11017011,11018011,11018010,12017010,12017011,12018011,12018010
3231,11017011,11017012,11018012,11018011,12017011,12017012,12018012,12018011
3232,11017012,11017013,11018013,11018012,12017012,12017013,12018013,12018012
3233,11017013,11017014,11018014,11018013,12017013,12017014,12018014,12018013
3234,11017014,11017015,11018015,11018014,12017014,12017015,12018015,12018014
3235,11017015,11017016,11018016,11018015,12017015,12017016,12018016,12018015
3236,11017016,11017017,11018017,11018016,12017016,12017017,12018017,12018016
3237,11017017,11017018,11018018,11018017,12017017,12017018,12018018,12018017
3238,11017018,11017019,11018019,11018018,12017018,12017019,12018019,12018018
3239,11017019,11017020,11018020,11018019,12017019,12017020,12018020,12018019
3240,11017020,11017021,11018021,11018020,12017020,12017021,12018021,12018020
3241,11018001,11018002,11019002,11019001,12018001,12018002,12019002,12019001
3242,11018002,11018003,11019003,11019002,12018002,12018003,12019003,12019002
3243,11018003,11018004,11019004,11019003,12018003,12018004,12019004,12019003
3244,11018004,11018005,11019005,11019004,12018004,12018005,12019005,12019004
3245,11018005,11018006,11019006,11019005,12018005,12018006,12019006,12019005
3246,11018006,11018007,11019007,11019006,12018006,12018007,12019007,12019006
3247,11018007,11018008,11019008,11019007,12018007,12018008,12019008,12019007
3248,11018008,11018009,11019009,11019008,12018008,12018009,12019009,12019008
3249,11018009,11018010,11019010,11019009,12018009,12018010,12019010,12019009
3250,11018010,11018011,11019011,11019010,12018010,12018011,12019011,12019010
3251,11018011,11018012,11019012,11019011,12018011,12018012,12019012,12019011
3252,11018012,11018013,11019013,11019012,12018012,12018013,12019013,12019012
3253,11018013,11018014,11019014,11019013,12018013,12018014,12019014,12019013
3254,11018014,11018015,11019015,11019014,12018014,12018015,12019015,12019014
3255,11018015,11018016,11019016,11019015,12018015,12018016,12019016,12019015
3256,11018016,11018017,11019017,11019016,12018016,12018017,12019017,12019016
3257,11018017,11018018,11019018,11019017,12018017,12018018,12019018,12019017
3258,11018018,11018019,11019019,11019018,12018018,12018019,12019019,12019018
3259,11018019,11018020,11019020,11019019,12018019,12018020,12019020,12019019
3260,11018020,11018021,11019021,11019020,12018020,12018021,12019021,12019020
3261,11019001,11019002,11020002,11020001,12019001,12019002,12020002,12020001
3262,11019002,11019003,11020003,11020002,12019002,12019003,12020003,12020002
3263,11019003,11019004,11020004,11020003,12019003,12019004,12020004,12020003
3264,11019004,11019005,11020005,11020004,12019004,12019005,12020005,12020004
3265,11019005,11019006,11020006,11020005,12019005,12019006,12020006,12020005
3266,11019006,11019007,11020007,11020006,12019006,12019007,12020007,12020006
3267,11019007,11019008,11020008,11020007,12019007,12019008,12020008,12020007
3268,11019008,11019009,11020009,11020008,12019008,12019009,12020009,12020008
3269,11019009,11019010,11020010,11020009,12019009,12019010,12020010,12020009
3270,11019010,11019011,11020011,11020010,12019010,12019011,12020011,12020010
3271,11019011,11019012,11020012,11020011,12019011,12019012,12020012,12020011
3272,11019012,11019013,11020013,11020012,12019012,12019013,12020013,12020012
3273,11019013,11019014,11020014,11020013,12019013,12019014,12020014,12020013
3274,11019014,11019015,11020015,11020014,12019014,12019015,12020015,12020014
3275,11019015,11019016,11020016,11020015,12019015,12019016,12020016,12020015
3276,11019016,11019017,11020017,11020016,12019016,12019017,12020017,12020016
3277,11019017,11019018,11020018,11020017,12019017,12019018,12020018,12020017
3278,11019018,11019019,11020019,11020018,12019018,12019019,12020019,12020018
3279,11019019,11019020,11020020,11020019,12019019,12019020,12020020,12020019
3280,11019020,11019021,11020021,11020020,12019020,12019021,12020021,12020020
3281,13001009,13001010,13002010,13002009,14001009,14001010,14002010,14002009
3282,13001010,13001011,13002011,13002010,14001010,14001011,14002011,14002010
3283,13001011,13001012,13002012,13002011,14001011,14001012,14002012,14002011
3284,13001012,13001013,13002013,13002012,14001012,14001013,14002013,14002012
3285,13002007,13002008,13003008,13003007,14002007,14002008,14003008,14003007
3286,13002008,13002009,13003009,13003008,14002008,14002009,14003009,14003008
3287,13002009,13002010,13003010,13003009,14002009,14002010,14003010,14003009
3288,13002010,13002011,13003011,13003010,14002010,14002011,14003011,14003010
3289,13002011,13002012,13003012,13003011,14002011,14002012,14003012,14003011
3290,13002012,13002013,13003013,13003012,14002012,14002013,14003013,14003012
3291,13002013,13002014,13003014,13003013,14002013,14002014,14003014,14003013
3292,13002014,13002015,13003015,13003014,14002014,14002015,14003015,14003014
3293,13003005,13003006,13004006,13004005,14003005,14003006,14004006,14004005
3294,13003006,13003007,13004007,13004006,14003006,14003007,14004007,14004006
3295,13003007,13003008,13004008,13004007,14003007,14003008,14004008,14004007
3296,13003008,13003009,13004009,13004008,14003008,14003009,14004009,14004008
3297,13003009,13003010,13004010,13004009,14003009,14003010,14004010,14004009
3298,13003010,13003011,13004011,13004010,14003010,14003011,14004011,14004010
3299,13003011,13003012,13004012,13004011,14003011,14003012,14004012,14004011
3300,13003012,13003013,13004013,13004012,14003012,14003013,14004013,14004012
3301,13003013,13003014,13004014,13004013,14003013,14003014,14004014,14004013
3302,13003014,13003015,13004015,13004014,14003014,14003015,14004015,14004014
3303,13003015,13003016,13004016,13004015,14003015,14003016,14004016,14004015
3304,13003016,13003017,13004017,13004016,14003016,14003017,14004017,14004016
3305,13004004,13004005,13005005,13005004,14004004,14004005,14005005,14005004
3306,13004005,13004006,13005006,13005005,14004005,14004006,14005006,14005005
3307,13004006,13004007,13005007,13005006,14004006,14004007,14005007,14005006
3308,13004007,13004008,13005008,13005007,14004007,14004008,14005008,14005007
3309,13004008,13004009,13005009,13005008,14004008,14004009,14005009,14005008
3310,13004009,13004010,13005010,13005009,14004009,14004010,14005010,14005009
3311,13004010,13004011,13005011,13005010,14004010,14004011,14005011,14005010
3312,13004011,13004012,13005012,13005011,14004011,14004012,14005012,14005011
3313,13004012,13004013,13005013,13005012,14004012,14004013,14005013,14005012
3314,13004013,13004014,13005014,13005013,14004013,14004014,14005014,14005013
3315,13004014,13004015,13005015,13005014,14004014,14004015,14005015,14005014
3316,13004015,13004016,13005016,13005015,14004015,14004016,14005016,14005015
3317,13004016,13004017,13005017,13005016,14004016,14004017,14005017,14005016
3318,13004017,13004018,13005018,13005017,14004017,14004018,14005018,14005017
3319,13005004,13005005,13006005,13006004,14005004,14005005,14006005,14006004
3320,13005005,13005006,13006006,13006005,14005005,14005006,14006006,14006005
3321,13005006,13005007,13006007,13006006,14005006,14005007,14006007,14006006
3322,13005007,13005008,13006008,13006007,14005007,14005008,14006008,14006007
3323,13005008,13005009,13006009,13006008,14005008,14005009,14006009,14006008
3324,13005009,13005010,13006010,13006009,14005009,14005010,14006010,14006009
3325,13005010,13005011,13006011,13006010,14005010,14005011,14006011,14006010
3326,13005011,13005012,13006012,13006011,14005011,14005012,14006012,14006011
3327,13005012,13005013,13006013,13006012,14005012,14005013,14006013,14006012
3328,13005013,13005014,13006014,13006013,14005013,14005014,14006014,14006013
3329,13005014,13005015,13006015,13006014,14005014,14005015,14006015,14006014
3330,13005015,13005016,13006016,13006015,14005015,14005016,14006016,14006015
3331,13005016,13005017,13006017,13006016,14005016,14005017,14006017,14006016
3332,13005017,13005018,13006018,13006017,14005017,14005018,14006018,14006017
3333,13006003,13006004,13007004,13007003,14006003,14006004,14007004,14007003
3334,13006004,13006005,13007005,13007004,14006004,14006005,14007005,14007004
3335,13006005,13006006,13007006,13007005,14006005,14006006,14007006,14007005
3336,13006006,13006007,13007007,13007006,14006006,14006007,14007007,14007006
3337,13006007,13006008,13007008,13007007,14006007,14006008,14007008,14007007
3338,13006008,13006009,13007009,13007008,14006008,14006009,14007009,14007008
3339,13006009,13006010,13007010,13007009,14006009,14006010,14007010,14007009
3340,13006010,13006011,13007011,13007010,14006010,14006011,14007011,14007010
3341,13006011,13006012,13007012,13007011,14006011,14006012,14007012,14007011
3342,13006012,13006013,13007013,13007012,14006012,14006013,14007013,14007012
3343,13006013,13006014,13007014,13007013,14006013,14006014,14007014,14007013
3344,13006014,13006015,13007015,13007014,14006014,14006015,14007015,14007014
3345,13006015,13006016,13007016,13007015,14006015,14006016,14007016,14007015
3346,13006016,13006017,13007017,13007016,14006016,14006017,14007017,14007016
3347,13006017,13006018,13007018,13007017,14006017,14006018,14007018,14007017
3348,13006018,13006019,13007019,13007018,14006018,14006019,14007019,14007018
3349,13007003,13007004,13008004,13008003,14007003,14007004,14008004,14008003
3350,13007004,13007005,13008005,13008004,14007004,14007005,14008005,14008004
3351,13007005,13007006,13008006,13008005,14007005,14007006,14008006,14008005
3352,13007006,13007007,13008007,13008006,14007006,14007007,14008007,14008006
3353,13007007,13007008,13008008,13008007,14007007,14007008,14008008,14008007
3354,13007008,13007009,13008009,13008008,14007008,14007009,14008009,14008008
3355,13007013,13007014,13008014,13008013,14007013,14007014,14008014,14008013
3356,13007014,13007015,13008015,13008014,14007014,14007015,14008015,14008014
3357,13007015,13007016,13008016,13008015,14007015,14007016,14008016,14008015
3358,13007016,13007017,13008017,13008016,14007016,14007017,14008017,14008016
3359,13007017,13007018,13008018,13008017,14007017,14007018,14008018,14008017
3360,13007018,13007019,13008019,13008018,14007018,14007019,14008019,14008018
3361,13008002,13008003,13009003,13009002,14008002,14008003,14009003,14009002
3362,13008003,13008004,13009004,13009003,14008003,14008004,14009004,14009003
3363,13008004,13008005,13009005,13009004,14008004,14008005,14009005,14009004
3364,13008005,13008006,13009006,13009005,14008005,14008006,14009006,14009005
3365,13008006,13008007,13009007,13009006,14008006,14008007,14009007,14009006
3366,13008007,13008008,13009008,13009007,14008007,14008008,14009008,14009007
3367,13008014,13008015,13009015,13009014,14008014,14008015,14009015,14009014
3368,13008015,13008016,13009016,13009015,14008015,14008016,14009016,14009015
3369,13008016,13008017,13009017,13009016,14008016,14008017,14009017,14009016
3370,13008017,13008018,13009018,13009017,14008017,14008018,14009018,14009017
3371,13008018,13008019,13009019,13009018,14008018,14008019,14009019,14009018
3372,13008019,13008020,13009020,13009019,14008019,14008020,14009020,14009019
3373,13009002,13009003,13010003,13010002,14009002,14009003,14010003,14010002
3374,13009003,13009004,13010004,13010003,14009003,14009004,14010004,14010003
3375,13009004,13009005,13010005,13010004,14009004,14009005,14010005,14010004
3376,13009005,13009006,13010006,13010005,14009005,14009006,14010006,14010005
3377,13009006,13009007,13010007,13010006,14009006,14009007,14010007,14010006
3378,13009007,13009008,13010008,13010007,14009007,14009008,14010008,14010007
3379,13009014,13009015,13010015,13010014,14009014,14009015,14010015,14010014
3380,13009015,13009016,13010016,13010015,14009015,14009016,14010016,14010015
3381,13009016,13009017,13010017,13010016,14009016,14009017,14010017,14010016
3382,13009017,13009018,13010018,13010017,14009017,14009018,14010018,14010017
3383,13009018,13009019,13010019,13010018,14009018,14009019,14010019,14010018
3384,13009019,13009020,13010020,13010019,14009019,14009020,14010020,14010019
3385,13010002,13010003,13011003,13011002,14010002,14010003,14011003,14011002
3386,13010003,13010004,13011004,13011003,14010003,14010004,14011004,14011003
3387,13010004,13010005,13011005,13011004,14010004,14010005,14011005,14011004
3388,13010005,13010006,13011006,13011005,14010005,14010006,14011006,14011005
3389,13010006,13010007,13011007,13011006,14010006,14010007,14011007,14011006
3390,13010007,13010008,13011008,13011007,14010007,14010008,14011008,14011007
3391,13010014,13010015,13011015,13011014,14010014,14010015,14011015,14011014
3392,13010015,13010016,13011016,13011015,14010015,14010016,14011016,14011015
3393,13010016,13010017,13011017,13011016,14010016,14010017,14011017,14011016
3394,13010017,13010018,13011018,13011017,14010017,14010018,14011018,14011017
3395,13010018,13010019,13011019,13011018,14010018,14010019,14011019,14011018
3396,13010019,13010020,13011020,13011019,14010019,14010020,14011020,14011019
3397,13011002,13011003,13012003,13012002,14011002,14011003,14012003,14012002
3398,13011003,13011004,13012004,13012003,14011003,14011004,14012004,14012003
3399,13011004,13011005,13012005,13012004,14011004,14011005,14012005,14012004
3400,13011005,13011006,13012006,13012005,14011005,14011006,14012006,14012005
3401,13011006,13011007,13012007,13012006,14011006,14011007,14012007,14012006
3402,13011007,13011008,13012008,13012007,14011007,14011008,14012008,14012007
3403,13011014,13011015,13012015,13012014,14011014,14011015,14012015,14012014
3404,13011015,13011016,13012016,13012015,14011015,14011016,14012016,14012015
3405,13011016,13011017,13012017,13012016,14011016,14011017,14012017,14012016
3406,13011017,13011018,13012018,13012017,14011017,14011018,14012018,14012017
3407,13011018,13011019,13012019,13012018,14011018,14011019,14012019,14012018
3408,13011019,13011020,13012020,13012019,14011019,14011020,14012020,14012019
3409,13012003,13012004,13013004,13013003,14012003,14012004,14013004,14013003
3410,13012004,13012005,13013005,13013004,14012004,14012005,14013005,14013004
3411,13012005,13012006,13013006,13013005,14012005,14012006,14013006,14013005
3412,13012006,13012007,13013007,13013006,14012006,14012007,14013007,14013006
3413,13012007,13012008,13013008,13013007,14012007,14012008,14013008,14013007
3414,13012008,13012009,13013009,13013008,14012008,14012009,14013009,14013008
3415,13012013,13012014,13013014,13013013,14012013,14012014,14013014,14013013
3416,13012014,13012015,13013015,13013014,14012014,14012015,14013015,14013014
3417,13012015,13012016,13013016,13013015,14012015,14012016,14013016,14013015
3418,13012016,13012017,13013017,13013016,14012016,14012017,14013017,14013016
3419,13012017,13012018,13013018,13013017,14012017,14012018,14013018,14013017
3420,13012018,13012019,13013019,13013018,14012018,14012019,14013019,14013018
3421,13013003,13013004,13014004,13014003,14013003,14013004,14014004,14014003
3422,13013004,13013005,13014005,13014004,14013004,14013005,14014005,14014004
3423,13013005,13013006,13014006,13014005,14013005,14013006,14014006,14014005
3424,13013006,13013007,13014007,13014006,14013006,14013007,14014007,14014006
3425,13013007,13013008,13014008,13014007,14013007,14013008,14014008,14014007
3426,13013008,13013009,13014009,13014008,14013008,14013009,14014009,14014008
3427,13013009,13013010,13014010,13014009,14013009,14013010,14014010,14014009
3428,13013010,13013011,13014011,13014010,14013010,14013011,14014011,14014010
3429,13013011,13013012,13014012,13014011,14013011,14013012,14014012,14014011
3430,13013012,13013013,13014013,13014012,14013012,14013013,14014013,14014012
3431,13013013,13013014,13014014,13014013,14013013,14013014,14014014,14014013
3432,13013014,13013015,13014015,13014014,14013014,14013015,14014015,14014014
3433,13013015,13013016,13014016,13014015,14013015,14013016,14014016,14014015
3434,13013016,13013017,13014017,13014016,14013016,14013017,14014017,14014016
3435,13013017,13013018,13014018,13014017,14013017,14013018,14014018,14014017
3436,13013018,13013019,13014019,13014018,14013018,14013019,14014019,14014018
3437,13014004,13014005,13015005,13015004,14014004,14014005,14015005,14015004
3438,13014005,13014006,13015006,13015005,14014005,14014006,14015006,14015005
3439,13014006,13014007,13015007,13015006,14014006,14014007,14015007,14015006
3440,13014007,13014008,13015008,13015007,14014007,14014008,14015008,14015007
3441,13014008,13014009,13015009,13015008,14014008,14014009,14015009,14015008
3442,13014009,13014010,13015010,13015009,14014009,14014010,14015010,14015009
3443,13014010,13014011,13015011,13015010,14014010,14014011,14015011,14015010
3444,13014011,13014012,13015012,13015011,14014011,14014012,14015012,14015011
3445,13014012,13014013,13015013,13015012,14014012,14014013,14015013,14015012
3446,13014013,13014014,13015014,13015013,14014013,14014014,14015014,14015013
3447,13014014,13014015,13015015,13015014,14014014,14014015,14015015,14015014
3448,13014015,13014016,13015016,13015015,14014015,14014016,14015016,14015015
3449,13014016,13014017,13015017,13015016,14014016,14014017,14015017,14015016
3450,13014017,13014018,13015018,13015017,14014017,14014018,14015018,14015017
3451,13015004,13015005,13016005,13016004,14015004,14015005,14016005,14016004
3452,13015005,13015006,13016006,13016005,14015005,14015006,14016006,14016005
3453,13015006,13015007,13016007,13016006,14015006,14015007,14016007,14016006
3454,13015007,13015008,13016008,13016007,14015007,14015008,14016008,14016007
3455,13015008,13015009,13016009,13016008,14015008,14015009,14016009,14016008
3456,13015009,13015010,13016010,13016009,14015009,14015010,14016010,14016009
3457,13015010,13015011,13016011,13016010,14015010,14015011,14016011,14016010
3458,13015011,13015012,13016012,13016011,14015011,14015012,14016012,14016011
3459,13015012,13015013,13016013,13016012,14015012,14015013,14016013,14016012
3460,13015013,13015014,13016014,13016013,14015013,14015014,14016014,14016013
3461,13015014,13015015,13016015,13016014,14015014,14015015,14016015,14016014
3462,13015015,13015016,13016016,13016015,14015015,14015016,14016016,14016015
3463,13015016,13015017,13016017,13016016,14015016,14015017,14016017,14016016
3464,13015017,13015018,13016018,13016017,14015017,14015018,14016018,14016017
3465,13016005,13016006,13017006,13017005,14016005,14016006,14017006,14017005
3466,13016006,13016007,13017007,13017006,14016006,14016007,14017007,14017006
3467,13016007,13016008,13017008,13017007,14016007,14016008,14017008,14017007
3468,13016008,13016009,13017009,13017008,14016008,14016009,14017009,14017008
3469,13016009,13016010,13017010,13017009,14016009,14016010,14017010,14017009
3470,13016010,13016011,13017011,13017010,14016010,14016011,14017011,14017010
3471,13016011,13016012,13017012,13017011,14016011,14016012,14017012,14017011
3472,13016012,13016013,13017013,13017012,14016012,14016013,14017013,14017012
3473,13016013,13016014,13017014,13017013,14016013,14016014,14017014,14017013
3474,13016014,13016015,13017015,13017014,14016014,14016015,14017015,14017014
3475,13016015,13016016,13017016,13017015,14016015,14016016,14017016,14017015
3476,13016016,13016017,13017017,13017016,14016016,14016017,14017017,14017016
3477,13017007,13017008,13018008,13018007,14017007,14017008,14018008,14018007
3478,13017008,13017009,13018009,13018008,14017008,14017009,14018009,14018008
3479,13017009,13017010,13018010,13018009,14017009,14017010,14018010,14018009
3480,13017010,13017011,13018011,13018010,14017010,14017011,14018011,14018010
3481,13017011,13017012,13018012,13018011,14017011,14017012,14018012,14018011
3482,13017012,13017013,13018013,13018012,14017012,14017013,14018013,14018012
3483,13017013,13017014,13018014,13018013,14017013,14017014,14018014,14018013
3484,13017014,13017015,13018015,13018014,14017014,14017015,14018015,14018014
3485,13018009,13018010,13019010,13019009,14018009,14018010,14019010,14019009
3486,13018010,13018011,13019011,13019010,14018010,14018011,14019011,14019010
3487,13018011,13018012,13019012,13019011,14018011,14018012,14019012,14019011
3488,13018012,13018013,13019013,13019012,14018012,14018013,14019013,14019012
3489,14001009,14001010,14002010,14002009,15001009,15001010,15002010,15002009
3490,14001010,14001011,14002011,14002010,15001010,15001011,15002011,15002010
3491,14001011,14001012,14002012,14002011,15001011,15001012,15002012,15002011
3492,14001012,14001013,14002013,14002012,15001012,15001013,15002013,15002012
3493,14002007,14002008,14003008,14003007,15002007,15002008,15003008,15003007
3494,14002008,14002009,14003009,14003008,15002008,15002009,15003009,15003008
3495,14002009,14002010,14003010,14003009,15002009,15002010,15003010,15003009
3496,14002010,14002011,14003011,14003010,15002010,15002011,15003011,15003010
3497,14002011,14002012,14003012,14003011,15002011,15002012,15003012,15003011
3498,14002012,14002013,14003013,14003012,15002012,15002013,15003013,15003012
3499,14002013,14002014,14003014,14003013,15002013,15002014,15003014,15003013
3500,14002014,14002015,14003015,14003014,15002014,15002015,15003015,15003014
3501,14003005,14003006,14004006,14004005,15003005,15003006,15004006,15004005
3502,14003006,14003007,14004007,14004006,15003006,15003007,15004007,15004006
3503,14003007,14003008,14004008,14004007,15003007,15003008,15004008,15004007
3504,14003008,14003009,14004009,14004008,15003008,15003009,15004009,15004008
3505,14003009,14003010,14004010,14004009,15003009,15003010,15004010,15004009
3506,14003010,14003011,14004011,14004010,15003010,15003011,15004011,15004010
3507,14003011,14003012,14004012,14004011,15003011,15003012,15004012,15004011
3508,14003012,14003013,14004013,14004012,15003012,15003013,15004013,15004012
3509,14003013,14003014,14004014,14004013,15003013,15003014,15004014,15004013
3510,14003014,14003015,14004015,14004014,15003014,15003015,15004015,15004014
3511,14003015,14003016,14004016,14004015,15003015,15003016,15004016,15004015
3512,14003016,14003017,14004017,14004016,15003016,15003017,15004017,15004016
3513,14004004,14004005,14005005,14005004,15004004,15004005,15005005,15005004
3514,14004005,14004006,14005006,14005005,15004005,15004006,15005006,15005005
3515,14004006,14004007,14005007,14005006,15004006,15004007,15005007,15005006
3516,14004007,14004008,14005008,14005007,15004007,15004008,15005008,15005007
3517,14004008,14004009,14005009,14005008,15004008,15004009,15005009,15005008
3518,14004009,14004010,14005010,14005009,15004009,15004010,15005010,15005009
3519,14004010,14004011,14005011,14005010,15004010,15004011,15005011,15005010
3520,14004011,14004012,14005012,14005011,15004011,15004012,15005012,15005011
3521,14004012,14004013,14005013,14005012,15004012,15004013,15005013,15005012
3522,14004013,14004014,14005014,14005013,15004013,15004014,15005014,15005013
3523,14004014,14004015,14005015,14005014,15004014,15004015,15005015,15005014
3524,14004015,14004016,14005016,14005015,15004015,15004016,15005016,15005015
3525,14004016,14004017,14005017,14005016,15004016,15004017,15005017,15005016
3526,14004017,14004018,14005018,14005017,15004017,15004018,15005018,15005017
3527,14005004,14005005,14006005,14006004,15005004,15005005,15006005,15006004
3528,14005005,14005006,14006006,14006005,15005005,15005006,15006006,15006005
3529,14005006,14005007,14006007,14006006,15005006,15005007,15006007,15006006
3530,14005007,14005008,14006008,14006007,15005007,15005008,15006008,15006007
3531,14005008,14005009,14006009,14006008,15005008,15005009,15006009,15006008
3532,14005009,14005010,14006010,14006009,15005009,15005010,15006010,15006009
3533,14005010,14005011,14006011,14006010,15005010,15005011,15006011,15006010
3534,14005011,14005012,14006012,14006011,15005011,15005012,15006012,15006011
3535,14005012,14005013,14006013,14006012,15005012,15005013,15006013,15006012
3536,14005013,14005014,14006014,14006013,15005013,15005014,15006014,15006013
3537,14005014,14005015,14006015,14006014,15005014,15005015,15006015,15006014
3538,14005015,14005016,14006016,14006015,15005015,15005016,15006016,15006015
3539,14005016,14005017,14006017,14006016,15005016,15005017,15006017,15006016
3540,14005017,14005018,14006018,14006017,15005017,15005018,15006018,15006017
3541,14006003,14006004,14007004,14007003,15006003,15006004,15007004,15007003
3542,14006004,14006005,14007005,14007004,15006004,15006005,15007005,15007004
3543,14006005,14006006,14007006,14007005,15006005,15006006,15007006,15007005
3544,14006006,14006007,14007007,14007006,15006006,15006007,15007007,15007006
3545,14006007,14006008,14007008,14007007,15006007,15006008,15007008,15007007
3546,14006008,14006009,14007009,14007008,15006008,15006009,15007009,15007008
3547,14006009,14006010,14007010,14007009,15006009,15006010,15007010,15007009
3548,14006010,14006011,14007011,14007010,15006010,15006011,15007011,15007010
3549,14006011,14006012,14007012,14007011,15006011,15006012,15007012,15007011
3550,14006012,14006013,14007013,14007012,15006012,15006013,15007013,15007012
3551,14006013,14006014,14007014,14007013,15006013,15006014,15007014,15007013
3552,14006014,14006015,14007015,14007014,15006014,15006015,15007015,15007014
3553,14006015,14006016,14007016,14007015,15006015,15006016,15007016,15007015
3554,14006016,14006017,14007017,14007016,15006016,15006017,15007017,15007016
3555,14006017,14006018,14007018,14007017,15006017,15006018,15007018,15007017
3556,14006018,14006019,14007019,14007018,15006018,15006019,15007019,15007018
3557,14007003,14007004,14008004,14008003,15007003,15007004,15008004,15008003
3558,14007004,14007005,14008005,14008004,15007004,15007005,15008005,15008004
3559,14007005,14007006,14008006,14008005,15007005,15007006,15008006,15008005
3560,14007006,14007007,14008007,14008006,15007006,15007007,15008007,15008006
3561,14007007,14007008,14008008,14008007,15007007,15007008,15008008,15008007
3562,14007008,14007009,14008009,14008008,15007008,15007009,15008009,15008008
3563,14007013,14007014,14008014,14008013,15007013,15007014,15008014,15008013
3564,14007014,14007015,14008015,14008014,15007014,15007015,15008015,15008014
3565,14007015,14007016,14008016,14008015,15007015,15007016,15008016,15008015
3566,14007016,14007017,14008017,14008016,15007016,15007017,15008017,15008016
3567,14007017,14007018,14008018,14008017,15007017,15007018,15008018,15008017
3568,14007018,14007019,14008019,14008018,15007018,15007019,15008019,15008018
3569,14008002,14008003,14009003,14009002,15008002,15008003,15009003,15009002
3570,14008003,14008004,14009004,14009003,15008003,15008004,15009004,15009003
3571,14008004,14008005,14009005,14009004,15008004,15008005,15009005,15009004
3572,14008005,14008006,14009006,14009005,15008005,15008006,15009006,15009005
3573,14008006,14008007,14009007,14009006,15008006,15008007,15009007,15009006
3574,14008007,14008008,14009008,14009007,15008007,15008008,15009008,15009007
3575,14008014,14008015,14009015,14009014,15008014,15008015,15009015,15009014
3576,14008015,14008016,14009016,14009015,15008015,15008016,15009016,15009015
3577,14008016,14008017,14009017,14009016,15008016,15008017,15009017,15009016
3578,14008017,14008018,14009018,14009017,15008017,15008018,15009018,15009017
3579,14008018,14008019,14009019,14009018,15008018,15008019,15009019,15009018
3580,14008019,14008020,14009020,14009019,15008019,15008020,15009020,15009019
3581,14009002,14009003,14010003,14010002,15009002,15009003,15010003,15010002
3582,14009003,14009004,14010004,14010003,15009003,15009004,15010004,15010003
3583,14009004,14009005,14010005,14010004,15009004,15009005,15010005,15010004
3584,14009005,14009006,14010006,14010005,15009005,15009006,15010006,15010005
3585,14009006,14009007,14010007,14010006,15009006,15009007,15010007,15010006
3586,14009007,14009008,14010008,14010007,15009007,15009008,15010008,15010007
3587,14009014,14009015,14010015,14010014,15009014,15009015,15010015,15010014
3588,14009015,14009016,14010016,14010015,15009015,15009016,15010016,15010015
3589,14009016,14009017,14010017,14010016,15009016,15009017,15010017,15010016
3590,14009017,14009018,14010018,14010017,15009017,15009018,15010018,15010017
3591,14009018,14009019,14010019,14010018,15009018,15009019,15010019,15010018
3592,14009019,14009020,14010020,14010019,15009019,15009020,15010020,15010019
3593,14010002,14010003,14011003,14011002,15010002,15010003,15011003,15011002
3594,14010003,14010004,14011004,14011003,15010003,15010004,15011004,15011003
3595,14010004,14010005,14011005,14011004,15010004,15010005,15011005,15011004
3596,14010005,14010006,14011006,14011005,15010005,15010006,15011006,15011005
3597,14010006,14010007,14011007,14011006,15010006,15010007,15011007,15011006
3598,14010007,14010008,14011008,14011007,15010007,15010008,15011008,15011007
3599,14010014,14010015,14011015,14011014,15010014,15010015,15011015,15011014
3600,14010015,14010016,14011016,14011015,15010015,15010016,15011016,15011015
3601,14010016,14010017,14011017,14011016,15010016,15010017,15011017,15011016
3602,14010017,14010018,14011018,14011017,15010017,15010018,15011018,15011017
3603,14010018,14010019,14011019,14011018,15010018,15010019,15011019,15011018
3604,14010019,14010020,14011020,14011019,15010019,15010020,15011020,15011019
3605,14011002,14011003,14012003,14012002,15011002,15011003,15012003,15012002
3606,14011003,14011004,14012004,14012003,15011003,15011004,15012004,15012003
3607,14011004,14011005,14012005,14012004,15011004,15011005,15012005,15012004
3608,14011005,14011006,14012006,14012005,15011005,15011006,15012006,15012005
3609,14011006,14011007,14012007,14012006,15011006,15011007,15012007,15012006
3610,14011007,14011008,14012008,14012007,15011007,15011008,15012008,15012007
3611,14011014,14011015,14012015,14012014,15011014,15011015,15012015,15012014
3612,14011015,14011016,14012016,14012015,15011015,15011016,15012016,15012015
3613,14011016,14011017,14012017,14012016,15011016,15011017,15012017,15012016
3614,14011017,14011018,14012018,14012017,15011017,15011018,15012018,15012017
3615,14011018,14011019,14012019,14012018,15011018,15011019,15012019,15012018
3616,14011019,14011020,14012020,14012019,15011019,15011020,15012020,15012019
3617,14012003,14012004,14013004,14013003,15012003,15012004,15013004,15013003
3618,14012004,14012005,14013005,14013004,15012004,15012005,15013005,15013004
3619,14012005,14012006,14013006,14013005,15012005,15012006,15013006,15013005
3620,14012006,14012007,14013007,14013006,15012006,15012007,15013007,15013006
3621,14012007,14012008,14013008,14013007,15012007,15012008,15013008,15013007
3622,14012008,14012009,14013009,14013008,15012008,15012009,15013009,15013008
3623,14012013,14012014,14013014,14013013,15012013,15012014,15013014,15013013
3624,14012014,14012015,14013015,14013014,15012014,15012015,15013015,15013014
3625,14012015,14012016,14013016,14013015,15012015,15012016,15013016,15013015
3626,14012016,14012017,14013017,14013016,15012016,15012017,15013017,15013016
3627,14012017,14012018,14013018,14013017,15012017,15012018,15013018,15013017
3628,14012018,14012019,14013019,14013018,15012018,15012019,15013019,15013018
3629,14013003,14013004,14014004,14014003,15013003,15013004,15014004,15014003
3630,14013004,14013005,14014005,14014004,15013004,15013005,15014005,15014004
3631,14013005,14013006,14014006,14014005,15013005,15013006,15014006,15014005
3632,14013006,14013007,14014007,14014006,15013006,15013007,15014007,15014006
3633,14013007,14013008,14014008,14014007,15013007,15013008,15014008,15014007
3634,14013008,14013009,14014009,14014008,15013008,15013009,15014009,15014008
3635,14013009,14013010,14014010,14014009,15013009,15013010,15014010,15014009
3636,14013010,14013011,14014011,14014010,15013010,15013011,15014011,15014010
3637,14013011,14013012,14014012,14014011,15013011,15013012,15014012,15014011
3638,14013012,14013013,14014013,14014012,15013012,15013013,15014013,15014012
3639,14013013,14013014,14014014,14014013,15013013,15013014,15014014,15014013
3640,14013014,14013015,14014015,14014014,15013014,15013015,15014015,15014014
3641,14013015,14013016,14014016,14014015,15013015,15013016,15014016,15014015
3642,14013016,14013017,14014017,14014016,15013016,15013017,15014017,15014016
3643,14013017,14013018,14014018,14014017,15013017,15013018,15014018,15014017
3644,14013018,14013019,14014019,14014018,15013018,15013019,15014019,15014018
3645,14014004,14014005,14015005,14015004,15014004,15014005,15015005,15015004
3646,14014005,14014006,14015006,14015005,15014005,15014006,15015006,15015005
3647,14014006,14014007,14015007,14015006,15014006,15014007,15015007,15015006
3648,14014007,14014008,14015008,14015007,15014007,15014008,15015008,15015007
3649,14014008,14014009,14015009,14015008,15014008,15014009,15015009,15015008
3650,14014009,14014010,14015010,14015009,15014009,15014010,15015010,15015009
3651,14014010,14014011,14015011,14015010,15014010,15014011,15015011,15015010
3652,14014011,14014012,14015012,14015011,15014011,15014012,15015012,15015011
3653,14014012,14014013,14015013,14015012,15014012,15014013,15015013,15015012
3654,14014013,14014014,14015014,14015013,15014013,15014014,15015014,15015013
3655,14014014,14014015,14015015,14015014,15014014,15014015,15015015,15015014
3656,14014015,14014016,14015016,14015015,15014015,15014016,15015016,15015015
3657,14014016,14014017,14015017,14015016,15014016,15014017,15015017,15015016
3658,14014017,14014018,14015018,14015017,15014017,15014018,15015018,15015017
3659,14015004,14015005,14016005,14016004,15015004,15015005,15016005,15016004
3660,14015005,14015006,14016006,14016005,15015005,15015006,15016006,15016005
3661,14015006,14015007,14016007,14016006,15015006,15015007,15016007,15016006
3662,14015007,14015008,14016008,14016007,15015007,15015008,15016008,15016007
3663,14015008,14015009,14016009,14016008,15015008,15015009,15016009,15016008
3664,14015009,14015010,14016010,14016009,15015009,15015010,15016010,15016009
3665,14015010,14015011,14016011,14016010,15015010,15015011,15016011,15016010
3666,14015011,14015012,14016012,14016011,15015011,15015012,15016012,15016011
3667,14015012,14015013,14016013,14016012,15015012,15015013,15016013,15016012
3668,14015013,14015014,14016014,14016013,15015013,15015014,15016014,15016013
3669,14015014,14015015,14016015,14016014,15015014,15015015,15016015,15016014
3670,14015015,14015016,14016016,14016015,15015015,15015016,15016016,15016015
3671,14015016,14015017,14016017,14016016,15015016,15015017,15016017,15016016
3672,14015017,14015018,14016018,14016017,15015017,15015018,15016018,15016017
3673,14016005,14016006,14017006,14017005,15016005,15016006,15017006,15017005
3674,14016006,14016007,14017007,14017006,15016006,15016007,15017007,15017006
3675,14016007,14016008,14017008,14017007,15016007,15016008,15017008,15017007
3676,14016008,14016009,14017009,14017008,15016008,15016009,15017009,15017008
3677,14016009,14016010,14017010,14017009,15016009,15016010,15017010,15017009
3678,14016010,14016011,14017011,14017010,15016010,15016011,15017011,15017010
3679,14016011,14016012,14017012,14017011,15016011,15016012,15017012,15017011
3680,14016012,14016013,14017013,14017012,15016012,15016013,15017013,15017012
3681,14016013,14016014,14017014,14017013,15016013,15016014,15017014,15017013
3682,14016014,14016015,14017015,14017014,15016014,15016015,15017015,15017014
3683,14016015,14016016,14017016,14017015,15016015,15016016,15017016,15017015
3684,14016016,14016017,14017017,14017016,15016016,15016017,15017017,15017016
3685,14017007,14017008,14018008,14018007,15017007,15017008,15018008,15018007
3686,14017008,14017009,14018009,14018008,15017008,15017009,15018009,15018008
3687,14017009,14017010,14018010,14018009,15017009,15017010,15018010,15018009
3688,14017010,14017011,14018011,14018010,15017010,15017011,15018011,15018010
3689,14017011,14017012,14018012,14018011,15017011,15017012,15018012,15018011
3690,14017012,14017013,14018013,14018012,15017012,15017013,15018013,15018012
3691,14017013,14017014,14018014,14018013,15017013,15017014,15018014,15018013
3692,14017014,14017015,14018015,14018014,15017014,15017015,15018015,15018014
3693,14018009,14018010,14019010,14019009,15018009,15018010,15019010,15019009
3694,14018010,14018011,14019011,14019010,15018010,15018011,15019011,15019010
3695,14018011,14018012,14019012,14019011,15018011,15018012,15019012,15019011
3696,14018012,14018013,14019013,14019012,15018012,15018013,15019013,15019012
3697,15001009,15001010,15002010,15002009,16001009,16001010,16002010,16002009
3698,15001010,15001011,15002011,15002010,16001010,16001011,16002011,16002010
3699,15001011,15001012,15002012,15002011,16001011,16001012,16002012,16002011
3700,15001012,15001013,15002013,15002012,16001012,16001013,16002013,16002012
3701,15002007,15002008,15003008,15003007,16002007,16002008,16003008,16003007
3702,15002008,15002009,15003009,15003008,16002008,16002009,16003009,16003008
3703,15002009,15002010,15003010,15003009,16002009,16002010,16003010,16003009
3704,15002010,15002011,15003011,15003010,16002010,16002011,16003011,16003010
3705,15002011,15002012,15003012,15003011,16002011,16002012,16003012,16003011
3706,15002012,15002013,15003013,15003012,16002012,16002013,16003013,16003012
3707,15002013,15002014,15003014,15003013,16002013,16002014,16003014,16003013
3708,15002014,15002015,15003015,15003014,16002014,16002015,16003015,16003014
3709,15003005,15003006,15004006,15004005,16003005,16003006,16004006,16004005
3710,15003006,15003007,15004007,15004006,16003006,16003007,16004007,16004006
3711,15003007,15003008,15004008,15004007,16003007,16003008,16004008,16004007
3712,15003008,15003009,15004009,15004008,16003008,16003009,16004009,16004008
3713,15003009,15003010,15004010,15004009,16003009,16003010,16004010,16004009
3714,15003010,15003011,15004011,15004010,16003010,16003011,16004011,16004010
3715,15003011,15003012,15004012,15004011,16003011,16003012,16004012,16004011
3716,15003012,15003013,15004013,15004012,16003012,16003013,16004013,16004012
3717,15003013,15003014,15004014,15004013,16003013,16003014,16004014,16004013
3718,15003014,15003015,15004015,15004014,16003014,16003015,16004015,16004014
3719,15003015,15003016,15004016,15004015,16003015,16003016,16004016,16004015
3720,15003016,15003017,15004017,15004016,16003016,16003017,16004017,16004016
3721,15004004,15004005,15005005,15005004,16004004,16004005,16005005,16005004
3722,15004005,15004006,15005006,15005005,16004005,16004006,16005006,16005005
3723,15004006,15004007,15005007,15005006,16004006,16004007,16005007,16005006
3724,15004007,15004008,15005008,15005007,16004007,16004008,16005008,16005007
3725,15004008,15004009,15005009,15005008,16004008,16004009,16005009,16005008
3726,15004009,15004010,15005010,15005009,16004009,16004010,16005010,16005009
3727,15004010,15004011,15005011,15005010,16004010,16004011,16005011,16005010
3728,15004011,15004012,15005012,15005011,16004011,16004012,16005012,16005011
3729,15004012,15004013,15005013,15005012,16004012,16004013,16005013,16005012
3730,15004013,15004014,15005014,15005013,16004013,16004014,16005014,16005013
3731,15004014,15004015,15005015,15005014,16004014,16004015,16005015,16005014
3732,15004015,15004016,15005016,15005015,16004015,16004016,16005016,16005015
3733,15004016,15004017,15005017,15005016,16004016,16004017,16005017,16005016
3734,15004017,15004018,15005018,15005017,16004017,16004018,16005018,16005017
3735,15005004,15005005,15006005,15006004,16005004,16005005,16006005,16006004
3736,15005005,15005006,15006006,15006005,16005005,16005006,16006006,16006005
3737,15005006,15005007,15006007,15006006,16005006,16005007,16006007,16006006
3738,15005007,15005008,15006008,15006007,16005007,16005008,16006008,16006007
3739,15005008,15005009,15006009,15006008,16005008,16005009,16006009,16006008
3740,15005009,15005010,15006010,15006009,16005009,16005010,16006010,16006009
3741,15005010,15005011,15006011,15006010,16005010,16005011,16006011,16006010
3742,15005011,15005012,15006012,15006011,16005011,16005012,16006012,16006011
3743,15005012,15005013,15006013,15006012,16005012,16005013,16006013,16006012
3744,15005013,15005014,15006014,15006013,16005013,16005014,16006014,16006013
3745,15005014,15005015,15006015,15006014,16005014,16005015,16006015,16006014
3746,15005015,15005016,15006016,15006015,16005015,16005016,16006016,16006015
3747,15005016,15005017,15006017,15006016,16005016,16005017,16006017,16006016
3748,15005017,15005018,15006018,15006017,16005017,16005018,16006018,16006017
3749,15006003,15006004,15007004,15007003,16006003,16006004,16007004,16007003
3750,15006004,15006005,15007005,15007004,16006004,16006005,16007005,16007004
3751,15006005,15006006,15007006,15007005,16006005,16006006,16007006,16007005
3752,15006006,15006007,15007007,15007006,16006006,16006007,16007007,16007006
3753,15006007,15006008,15007008,15007007,16006007,16006008,16007008,16007007
3754,15006008,15006009,15007009,15007008,16006008,16006009,16007009,16007008
3755,15006009,15006010,15007010,15007009,16006009,16006010,16007010,16007009
3756,15006010,15006011,15007011,15007010,16006010,16006011,16007011,16007010
3757,15006011,15006012,15007012,15007011,16006011,16006012,16007012,16007011
3758,15006012,15006013,15007013,15007012,16006012,16006013,16007013,16007012
3759,15006013,15006014,15007014,15007013,16006013,16006014,16007014,16007013
3760,15006014,15006015,15007015,15007014,16006014,16006015,16007015,16007014
3761,15006015,15006016,15007016,15007015,16006015,16006016,16007016,16007015
3762,15006016,15006017,15007017,15007016,16006016,16006017,16007017,16007016
3763,15006017,15006018,15007018,15007017,16006017,16006018,16007018,16007017
3764,15006018,15006019,15007019,15007018,16006018,16006019,16007019,16007018
3765,15007003,15007004,15008004,15008003,16007003,16007004,16008004,16008003
3766,15007004,15007005,15008005,15008004,16007004,16007005,16008005,16008004
3767,15007005,15007006,15008006,15008005,16007005,16007006,16008006,16008005
3768,15007006,15007007,15008007,15008006,16007006,16007007,16008007,16008006
3769,15007007,15007008,15008008,15008007,16007007,16007008,16008008,16008007
3770,15007008,15007009,15008009,15008008,16007008,16007009,16008009,16008008
3771,15007013,15007014,15008014,15008013,16007013,16007014,16008014,16008013
3772,15007014,15007015,15008015,15008014,16007014,16007015,16008015,16008014
3773,15007015,15007016,15008016,15008015,16007015,16007016,16008016,16008015
3774,15007016,15007017,15008017,15008016,16007016,16007017,16008017,16008016
3775,15007017,15007018,15008018,15008017,16007017,16007018,16008018,16008017
3776,15007018,15007019,15008019,15008018,16007018,16007019,16008019,16008018
3777,15008002,15008003,15009003,15009002,16008002,16008003,16009003,16009002
3778,15008003,15008004,15009004,15009003,16008003,16008004,16009004,16009003
3779,15008004,15008005,15009005,15009004,16008004,16008005,16009005,16009004
3780,15008005,15008006,15009006,15009005,16008005,16008006,16009006,16009005
3781,15008006,15008007,15009007,15009006,16008006,16008007,16009007,16009006
3782,15008007,15008008,15009008,15009007,16008007,16008008,16009008,16009007
3783,15008014,15008015,15009015,15009014,16008014,16008015,16009015,16009014
3784,15008015,15008016,15009016,15009015,16008015,16008016,16009016,16009015
3785,15008016,15008017,15009017,15009016,16008016,16008017,16009017,16009016
3786,15008017,15008018,15009018,15009017,16008017,16008018,16009018,16009017
3787,15008018,15008019,15009019,15009018,16008018,16008019,16009019,16009018
3788,15008019,15008020,15009020,15009019,16008019,16008020,16009020,16009019
3789,15009002,15009003,15010003,15010002,16009002,16009003,16010003,16010002
3790,15009003,15009004,15010004,15010003,16009003,16009004,16010004,16010003
3791,15009004,15009005,15010005,15010004,16009004,16009005,16010005,16010004
3792,15009005,15009006,15010006,15010005,16009005,16009006,16010006,16010005
3793,15009006,15009007,15010007,15010006,16009006,16009007,16010007,16010006
3794,15009007,15009008,15010008,15010007,16009007,16009008,16010008,16010007
3795,15009014,15009015,15010015,15010014,16009014,16009015,16010015,16010014
3796,15009015,15009016,15010016,15010015,16009015,16009016,16010016,16010015
3797,15009016,15009017,15010017,15010016,16009016,16009017,16010017,16010016
3798,15009017,15009018,15010018,15010017,16009017,16009018,16010018,16010017
3799,15009018,15009019,15010019,15010018,16009018,16009019,16010019,16010018
3800,15009019,15009020,15010020,15010019,16009019,16009020,16010020,16010019
3801,15010002,15010003,15011003,15011002,16010002,16010003,16011003,16011002
3802,15010003,15010004,15011004,15011003,16010003,16010004,16011004,16011003
3803,15010004,15010005,15011005,15011004,16010004,16010005,16011005,16011004
3804,15010005,15010006,15011006,15011005,16010005,16010006,16011006,16011005
3805,15010006,15010007,15011007,15011006,16010006,16010007,16011007,16011006
3806,15010007,15010008,15011008,15011007,16010007,16010008,16011008,16011007
3807,15010014,15010015,15011015,15011014,16010014,16010015,16011015,16011014
3808,15010015,15010016,15011016,15011015,16010015,16010016,16011016,16011015
3809,15010016,15010017,15011017,15011016,16010016,16010017,16011017,16011016
3810,15010017,15010018,15011018,15011017,16010017,16010018,16011018,16011017
3811,15010018,15010019,15011019,15011018,16010018,16010019,16011019,16011018
3812,15010019,15010020,15011020,15011019,16010019,16010020,16011020,16011019
3813,15011002,15011003,15012003,15012002,16011002,16011003,16012003,16012002
3814,15011003,15011004,15012004,15012003,16011003,16011004,16012004,16012003
3815,15011004,15011005,15012005,15012004,16011004,16011005,16012005,16012004
3816,15011005,15011006,15012006,15012005,16011005,16011006,16012006,16012005
3817,15011006,15011007,15012007,15012006,16011006,16011007,16012007,16012006
3818,15011007,15011008,15012008,15012007,16011007,16011008,16012008,16012007
3819,15011014,15011015,15012015,15012014,16011014,16011015,16012015,16012014
3820,15011015,15011016,15012016,15012015,16011015,16011016,16012016,16012015
3821,15011016,15011017,15012017,15012016,16011016,16011017,16012017,16012016
3822,15011017,15011018,15012018,15012017,16011017,16011018,16012018,16012017
3823,15011018,15011019,15012019,15012018,16011018,16011019,16012019,16012018
3824,15011019,15011020,15012020,15012019,16011019,16011020,16012020,16012019
3825,15012003,15012004,15013004,15013003,16012003,16012004,16013004,16013003
3826,15012004,15012005,15013005,15013004,16012004,16012005,16013005,16013004
3827,15012005,15012006,15013006,15013005,16012005,16012006,16013006,16013005
3828,15012006,15012007,15013007,15013006,16012006,16012007,16013007,16013006
3829,15012007,15012008,15013008,15013007,16012007,16012008,16013008,16013007
3830,15012008,15012009,15013009,15013008,16012008,16012009,16013009,16013008
3831,15012013,15012014,15013014,15013013,16012013,16012014,16013014,16013013
3832,15012014,15012015,15013015,15013014,16012014,16012015,16013015,16013014
3833,15012015,15012016,15013016,15013015,16012015,16012016,16013016,16013015
3834,15012016,15012017,15013017,15013016,16012016,16012017,16013017,16013016
3835,15012017,15012018,15013018,15013017,16012017,16012018,16013018,16013017
3836,15012018,15012019,15013019,15013018,16012018,16012019,16013019,16013018
3837,15013003,15013004,15014004,15014003,16013003,16013004,16014004,16014003
3838,15013004,15013005,15014005,15014004,16013004,16013005,16014005,16014004
3839,15013005,15013006,15014006,15014005,16013005,16013006,16014006,16014005
3840,15013006,15013007,15014007,15014006,16013006,16013007,16014007,16014006
3841,15013007,15013008,15014008,15014007,16013007,16013008,16014008,16014007
3842,15013008,15013009,15014009,15014008,16013008,16013009,16014009,16014008
3843,15013009,15013010,15014010,15014009,16013009,16013010,16014010,16014009
3844,15013010,15013011,15014011,15014010,16013010,16013011,16014011,16014010
3845,15013011,15013012,15014012,15014011,16013011,16013012,16014012,16014011
3846,15013012,15013013,15014013,15014012,16013012,16013013,16014013,16014012
3847,15013013,15013014,15014014,15014013,16013013,16013014,16014014,16014013
3848,15013014,15013015,15014015,15014014,16013014,16013015,16014015,16014014
3849,15013015,15013016,15014016,15014015,16013015,16013016,16014016,16014015
3850,15013016,15013017,15014017,15014016,16013016,16013017,16014017,16014016
3851,15013017,15013018,15014018,15014017,16013017,16013018,16014018,16014017
3852,15013018,15013019,15014019,15014018,16013018,16013019,16014019,16014018
3853,15014004,15014005,15015005,15015004,16014004,16014005,16015005,16015004
3854,15014005,15014006,15015006,15015005,16014005,16014006,16015006,16015005
3855,15014006,15014007,15015007,15015006,16014006,16014007,16015007,16015006
3856,15014007,15014008,15015008,15015007,16014007,16014008,16015008,16015007
3857,15014008,15014009,15015009,15015008,16014008,16014009,16015009,16015008
3858,15014009,15014010,15015010,15015009,16014009,16014010,16015010,16015009
3859,15014010,15014011,15015011,15015010,16014010,16014011,16015011,16015010
3860,15014011,15014012,15015012,15015011,16014011,16014012,16015012,16015011
3861,15014012,15014013,15015013,15015012,16014012,16014013,16015013,16015012
3862,15014013,15014014,15015014,15015013,16014013,16014014,16015014,16015013
3863,15014014,15014015,15015015,15015014,16014014,16014015,16015015,16015014
3864,15014015,15014016,15015016,15015015,16014015,16014016,16015016,16015015
3865,15014016,15014017,15015017,15015016,16014016,16014017,16015017,16015016
3866,15014017,15014018,15015018,15015017,16014017,16014018,16015018,16015017
3867,15015004,15015005,15016005,15016004,16015004,16015005,16016005,16016004
3868,15015005,15015006,15016006,15016005,16015005,16015006,16016006,16016005
3869,15015006,15015007,15016007,15016006,16015006,16015007,16016007,16016006
3870,15015007,15015008,15016008,15016007,16015007,16015008,16016008,16016007
3871,15015008,15015009,15016009,15016008,16015008,16015009,16016009,16016008
3872,15015009,15015010,15016010,15016009,16015009,16015010,16016010,16016009
3873,15015010,15015011,15016011,15016010,16015010,16015011,16016011,16016010
3874,15015011,15015012,15016012,15016011,16015011,16015012,16016012,16016011
3875,15015012,15015013,15016013,15016012,16015012,16015013,16016013,16016012
3876,15015013,15015014,15016014,15016013,16015013,16015014,16016014,16016013
3877,15015014,15015015,15016015,15016014,16015014,16015015,16016015,16016014
3878,15015015,15015016,15016016,15016015,16015015,16015016,16016016,16016015
3879,15015016,15015017,15016017,15016016,16015016,16015017,16016017,16016016
3880,15015017,15015018,15016018,15016017,16015017,16015018,16016018,16016017
3881,15016005,15016006,15017006,15017005,16016005,16016006,16017006,16017005
3882,15016006,15016007,15017007,15017006,16016006,16016007,16017007,16017006
3883,15016007,15016008,15017008,15017007,16016007,16016008,16017008,16017007
3884,15016008,15016009,15017009,15017008,16016008,16016009,16017009,16017008
3885,15016009,15016010,15017010,15017009,16016009,16016010,16017010,16017009
3886,15016010,15016011,15017011,15017010,16016010,16016011,16017011,16017010
3887,15016011,15016012,15017012,15017011,16016011,16016012,16017012,16017011
3888,15016012,15016013,15017013,15017012,16016012,16016013,16017013,16017012
3889,15016013,15016014,15017014,15017013,16016013,16016014,16017014,16017013
3890,15016014,15016015,15017015,15017014,16016014,16016015,16017015,16017014
3891,15016015,15016016,15017016,15017015,16016015,16016016,16017016,16017015
3892,15016016,15016017,15017017,15017016,16016016,16016017,16017017,16017016
3893,15017007,15017008,15018008,15018007,16017007,16017008,16018008,16018007
3894,15017008,15017009,15018009,15018008,16017008,16017009,16018009,16018008
3895,15017009,15017010,15018010,15018009,16017009,16017010,16018010,16018009
3896,15017010,15017011,15018011,15018010,16017010,16017011,16018011,16018010
3897,15017011,15017012,15018012,15018011,16017011,16017012,16018012,16018011
3898,15017012,15017013,15018013,15018012,16017012,16017013,16018013,16018012
3899,15017013,15017014,15018014,15018013,16017013,16017014,16018014,16018013
3900,15017014,15017015,15018015,15018014,16017014,16017015,16018015,16018014
3901,15018009,15018010,15019010,15019009,16018009,16018010,16019010,16019009
3902,15018010,15018011,15019011,15019010,16018010,16018011,16019011,16019010
3903,15018011,15018012,15019012,15019011,16018011,16018012,16019012,16019011
3904,15018012,15018013,15019013,15019012,16018012,16018013,16019013,16019012
3905,16001009,16001010,16002010,16002009,17001009,17001010,17002010,17002009
3906,16001010,16001011,16002011,16002010,17001010,17001011,17002011,17002010
3907,16001011,16001012,16002012,16002011,17001011,17001012,17002012,17002011
3908,16001012,16001013,16002013,16002012,17001012,17001013,17002013,17002012
3909,16002007,16002008,16003008,16003007,17002007,17002008,17003008,17003007
3910,16002008,16002009,16003009,16003008,17002008,17002009,17003009,17003008
3911,16002009,16002010,16003010,16003009,17002009,17002010,17003010,17003009
3912,16002010,16002011,16003011,16003010,17002010,17002011,17003011,17003010
3913,16002011,16002012,16003012,16003011,17002011,17002012,17003012,17003011
3914,16002012,16002013,16003013,16003012,17002012,17002013,17003013,17003012
3915,16002013,16002014,16003014,16003013,17002013,17002014,17003014,17003013
3916,16002014,16002015,16003015,16003014,17002014,17002015,17003015,17003014
3917,16003005,16003006,16004006,16004005,17003005,17003006,17004006,17004005
3918,16003006,16003007,16004007,16004006,17003006,17003007,17004007,17004006
3919,16003007,16003008,16004008,16004007,17003007,17003008,17004008,17004007
3920,16003008,16003009,16004009,16004008,17003008,17003009,17004009,17004008
3921,16003009,16003010,16004010,16004009,17003009,17003010,17004010,17004009
3922,16003010,16003011,16004011,16004010,17003010,17003011,17004011,17004010
3923,16003011,16003012,16004012,16004011,17003011,17003012,17004012,17004011
3924,16003012,16003013,16004013,16004012,17003012,17003013,17004013,17004012
3925,16003013,16003014,16004014,16004013,17003013,17003014,17004014,17004013
3926,16003014,16003015,16004015,16004014,17003014,17003015,17004015,17004014
3927,16003015,16003016,16004016,16004015,17003015,17003016,17004016,17004015
3928,16003016,16003017,16004017,16004016,17003016,17003017,17004017,17004016
3929,16004004,16004005,16005005,16005004,17004004,17004005,17005005,17005004
3930,16004005,16004006,16005006,16005005,17004005,17004006,17005006,17005005
3931,16004006,16004007,16005007,16005006,17004006,17004007,17005007,17005006
3932,16004007,16004008,16005008,16005007,17004007,17004008,17005008,17005007
3933,16004008,16004009,16005009,16005008,17004008,17004009,17005009,17005008
3934,16004009,16004010,16005010,16005009,17004009,17004010,17005010,17005009
3935,16004010,16004011,16005011,16005010,17004010,17004011,17005011,17005010
3936,16004011,16004012,16005012,16005011,17004011,17004012,17005012,17005011
3937,16004012,16004013,16005013,16005012,17004012,17004013,17005013,17005012
3938,16004013,16004014,16005014,16005013,17004013,17004014,17005014,17005013
3939,16004014,16004015,16005015,16005014,17004014,17004015,17005015,17005014
3940,16004015,16004016,16005016,16005015,17004015,17004016,17005016,17005015
3941,16004016,16004017,16005017,16005016,17004016,17004017,17005017,17005016
3942,16004017,16004018,16005018,16005017,17004017,17004018,17005018,17005017
3943,16005004,16005005,16006005,16006004,17005004,17005005,17006005,17006004
3944,16005005,16005006,16006006,16006005,17005005,17005006,17006006,17006005
3945,16005006,16005007,16006007,16006006,17005006,17005007,17006007,17006006
3946,16005007,16005008,16006008,16006007,17005007,17005008,17006008,17006007
3947,16005008,16005009,16006009,16006008,17005008,17005009,17006009,17006008
3948,16005009,16005010,16006010,16006009,17005009,17005010,17006010,17006009
3949,16005010,16005011,16006011,16006010,17005010,17005011,17006011,17006010
3950,16005011,16005012,16006012,16006011,17005011,17005012,17006012,17006011
3951,16005012,16005013,16006013,16006012,17005012,17005013,17006013,17006012
3952,16005013,16005014,16006014,16006013,17005013,17005014,17006014,17006013
3953,16005014,16005015,16006015,16006014,17005014,17005015,17006015,17006014
3954,16005015,16005016,16006016,16006015,17005015,17005016,17006016,17006015
3955,16005016,16005017,16006017,16006016,17005016,17005017,17006017,17006016
3956,16005017,16005018,16006018,16006017,17005017,17005018,17006018,17006017
3957,16006003,16006004,16007004,16007003,17006003,17006004,17007004,17007003
3958,16006004,16006005,16007005,16007004,17006004,17006005,17007005,17007004
3959,16006005,16006006,16007006,16007005,17006005,17006006,17007006,17007005
3960,16006006,16006007,16007007,16007006,17006006,17006007,17007007,17007006
3961,16006007,16006008,16007008,16007007,17006007,17006008,17007008,17007007
3962,16006008,16006009,16007009,16007008,17006008,17006009,17007009,17007008
3963,16006009,16006010,16007010,16007009,17006009,17006010,17007010,17007009
3964,16006010,16006011,16007011,16007010,17006010,17006011,17007011,17007010
3965,16006011,16006012,16007012,16007011,17006011,17006012,17007012,17007011
3966,16006012,16006013,16007013,16007012,17006012,17006013,17007013,17007012
3967,16006013,16006014,16007014,16007013,17006013,17006014,17007014,17007013
3968,16006014,16006015,16007015,16007014,17006014,17006015,17007015,17007014
3969,16006015,16006016,16007016,16007015,17006015,17006016,17007016,17007015
3970,16006016,16006017,16007017,16007016,17006016,17006017,17007017,17007016
3971,16006017,16006018,16007018,16007017,17006017,17006018,17007018,17007017
3972,16006018,16006019,16007019,16007018,17006018,17006019,17007019,17007018
3973,16007003,16007004,16008004,16008003,17007003,17007004,17008004,17008003
3974,16007004,16007005,16008005,16008004,17007004,17007005,17008005,17008004
3975,16007005,16007006,16008006,16008005,17007005,17007006,17008006,17008005
3976,16007006,16007007,16008007,16008006,17007006,17007007,17008007,17008006
3977,16007007,16007008,16008008,16008007,17007007,17007008,17008008,17008007
3978,16007008,16007009,16008009,16008008,17007008,17007009,17008009,17008008
3979,16007013,16007014,16008014,16008013,17007013,17007014,17008014,17008013
3980,16007014,16007015,16008015,16008014,17007014,17007015,17008015,17008014
3981,16007015,16007016,16008016,16008015,17007015,17007016,17008016,17008015
3982,16007016,16007017,16008017,16008016,17007016,17007017,17008017,17008016
3983,16007017,16007018,16008018,16008017,17007017,17007018,17008018,17008017
3984,16007018,16007019,16008019,16008018,17007018,17007019,17008019,17008018
3985,16008002,16008003,16009003,16009002,17008002,17008003,17009003,17009002
3986,16008003,16008004,16009004,16009003,17008003,17008004,17009004,17009003
3987,16008004,16008005,16009005,16009004,17008004,17008005,17009005,17009004
3988,16008005,16008006,16009006,16009005,17008005,17008006,17009006,17009005
3989,16008006,16008007,16009007,16009006,17008006,17008007,17009007,17009006
3990,16008007,16008008,16009008,16009007,17008007,17008008,17009008,17009007
3991,16008014,16008015,16009015,16009014,17008014,17008015,17009015,17009014
3992,16008015,16008016,16009016,16009015,17008015,17008016,17009016,17009015
3993,16008016,16008017,16009017,16009016,17008016,17008017,17009017,17009016
3994,16008017,16008018,16009018,16009017,17008017,17008018,17009018,17009017
3995,16008018,16008019,16009019,16009018,17008018,17008019,17009019,17009018
3996,16008019,16008020,16009020,16009019,17008019,17008020,17009020,17009019
3997,16009002,16009003,16010003,16010002,17009002,17009003,17010003,17010002
3998,16009003,16009004,16010004,16010003,17009003,17009004,17010004,17010003
3999,16009004,16009005,16010005,16010004,17009004,17009005,17010005,17010004
4000,16009005,16009006,16010006,16010005,17009005,17009006,17010006,17010005
4001,16009006,16009007,16010007,16010006,17009006,17009007,17010007,17010006
4002,16009007,16009008,16010008,16010007,17009007,17009008,17010008,17010007
4003,16009014,16009015,16010015,16010014,17009014,17009015,17010015,17010014
4004,16009015,16009016,16010016,16010015,17009015,17009016,17010016,17010015
4005,16009016,16009017,16010017,16010016,17009016,17009017,17010017,17010016
4006,16009017,16009018,16010018,16010017,17009017,17009018,17010018,17010017
4007,16009018,16009019,16010019,16010018,17009018,17009019,17010019,17010018
4008,16009019,16009020,16010020,16010019,17009019,17009020,17010020,17010019
4009,16010002,16010003,16011003,16011002,17010002,17010003,17011003,17011002
4010,16010003,16010004,16011004,16011003,17010003,17010004,17011004,17011003
4011,16010004,16010005,16011005,16011004,17010004,17010005,17011005,17011004
4012,16010005,16010006,16011006,16011005,17010005,17010006,17011006,17011005
4013,16010006,16010007,16011007,16011006,17010006,17010007,17011007,17011006
4014,16010007,16010008,16011008,16011007,17010007,17010008,17011008,17011007
4015,16010014,16010015,16011015,16011014,17010014,17010015,17011015,17011014
4016,16010015,16010016,16011016,16011015,17010015,17010016,17011016,17011015
4017,16010016,16010017,16011017,16011016,17010016,17010017,17011017,17011016
4018,16010017,16010018,16011018,16011017,17010017,17010018,17011018,17011017
4019,16010018,16010019,16011019,16011018,17010018,17010019,17011019,17011018
4020,16010019,16010020,16011020,16011019,17010019,17010020,17011020,17011019
4021,16011002,16011003,16012003,16012002,17011002,17011003,17012003,17012002
4022,16011003,16011004,16012004,16012003,17011003,17011004,17012004,17012003
4023,16011004,16011005,16012005,16012004,17011004,17011005,17012005,17012004
4024,16011005,16011006,16012006,16012005,17011005,17011006,17012006,17012005
4025,16011006,16011007,16012007,16012006,17011006,17011007,17012007,17012006
4026,16011007,16011008,16012008,16012007,17011007,17011008,17012008,17012007
4027,16011014,16011015,16012015,16012014,17011014,17011015,17012015,17012014
4028,16011015,16011016,16012016,16012015,17011015,17011016,17012016,17012015
4029,16011016,16011017,16012017,16012016,17011016,17011017,17012017,17012016
4030,16011017,16011018,16012018,16012017,17011017,17011018,17012018,17012017
4031,16011018,16011019,16012019,16012018,17011018,17011019,17012019,17012018
4032,16011019,16011020,16012020,16012019,17011019,17011020,17012020,17012019
4033,16012003,16012004,16013004,16013003,17012003,17012004,17013004,17013003
4034,16012004,16012005,16013005,16013004,17012004,17012005,17013005,17013004
4035,16012005,16012006,16013006,16013005,17012005,17012006,17013006,17013005
4036,16012006,16012007,16013007,16013006,17012006,17012007,17013007,17013006
4037,16012007,16012008,16013008,16013007,17012007,17012008,17013008,17013007
4038,16012008,16012009,16013009,16013008,17012008,17012009,17013009,17013008
4039,16012013,16012014,16013014,16013013,17012013,17012014,17013014,17013013
4040,16012014,16012015,16013015,16013014,17012014,17012015,17013015,17013014
4041,16012015,16012016,16013016,16013015,17012015,17012016,17013016,17013015
4042,16012016,16012017,16013017,16013016,17012016,17012017,17013017,17013016
4043,16012017,16012018,16013018,16013017,17012017,17012018,17013018,17013017
4044,16012018,16012019,16013019,16013018,17012018,17012019,17013019,17013018
4045,16013003,16013004,16014004,16014003,17013003,17013004,17014004,17014003
4046,16013004,16013005,16014005,16014004,17013004,17013005,17014005,17014004
4047,16013005,16013006,16014006,16014005,17013005,17013006,17014006,17014005
4048,16013006,16013007,16014007,16014006,17013006,17013007,17014007,17014006
4049,16013007,16013008,16014008,16014007,17013007,17013008,17014008,17014007
4050,16013008,16013009,16014009,16014008,17013008,17013009,17014009,17014008
4051,16013009,16013010,16014010,16014009,17013009,17013010,17014010,17014009
4052,16013010,16013011,16014011,16014010,17013010,17013011,17014011,17014010
4053,16013011,16013012,16014012,16014011,17013011,17013012,17014012,17014011
4054,16013012,16013013,16014013,16014012,17013012,17013013,17014013,17014012
4055,16013013,16013014,16014014,16014013,17013013,17013014,17014014,17014013
4056,16013014,16013015,16014015,16014014,17013014,17013015,17014015,17014014
4057,16013015,16013016,16014016,16014015,17013015,17013016,17014016,17014015
4058,16013016,16013017,16014017,16014016,17013016,17013017,17014017,17014016
4059,16013017,16013018,16014018,16014017,17013017,17013018,17014018,17014017
4060,16013018,16013019,16014019,16014018,17013018,17013019,17014019,17014018
4061,16014004,16014005,16015005,16015004,17014004,17014005,17015005,17015004
4062,16014005,16014006,16015006,16015005,17014005,17014006,17015006,17015005
4063,16014006,16014007,16015007,16015006,17014006,17014007,17015007,17015006
4064,16014007,16014008,16015008,16015007,17014007,17014008,17015008,17015007
4065,16014008,16014009,16015009,16015008,17014008,17014009,17015009,17015008
4066,16014009,16014010,16015010,16015009,17014009,17014010,17015010,17015009
4067,16014010,16014011,16015011,16015010,17014010,17014011,17015011,17015010
4068,16014011,16014012,16015012,16015011,17014011,17014012,17015012,17015011
4069,16014012,16014013,16015013,16015012,17014012,17014013,17015013,17015012
4070,16014013,16014014,16015014,16015013,17014013,17014014,17015014,17015013
4071,16014014,16014015,16015015,16015014,17014014,17014015,17015015,17015014
4072,16014015,16014016,16015016,16015015,17014015,17014016,17015016,17015015
4073,16014016,16014017,16015017,16015016,17014016,17014017,17015017,17015016
4074,16014017,16014018,16015018,16015017,17014017,17014018,17015018,17015017
4075,16015004,16015005,16016005,16016004,17015004,17015005,17016005,17016004
4076,16015005,16015006,16016006,16016005,17015005,17015006,17016006,17016005
4077,16015006,16015007,16016007,16016006,17015006,17015007,17016007,17016006
4078,16015007,16015008,16016008,16016007,17015007,17015008,17016008,17016007
4079,16015008,16015009,16016009,16016008,17015008,17015009,17016009,17016008
4080,16015009,16015010,16016010,16016009,17015009,17015010,17016010,17016009
4081,16015010,16015011,16016011,16016010,17015010,17015011,17016011,17016010
4082,16015011,16015012,16016012,16016011,17015011,17015012,17016012,17016011
4083,16015012,16015013,16016013,16016012,17015012,17015013,17016013,17016012
4084,16015013,16015014,16016014,16016013,17015013,17015014,17016014,17016013
4085,16015014,16015015,16016015,16016014,17015014,17015015,17016015,17016014
4086,16015015,16015016,16016016,16016015,17015015,17015016,17016016,17016015
4087,16015016,16015017,16016017,16016016,17015016,17015017,17016017,17016016
4088,16015017,16015018,16016018,16016017,17015017,17015018,17016018,17016017
4089,16016005,16016006,16017006,16017005,17016005,17016006,17017006,17017005
4090,16016006,16016007,16017007,16017006,17016006,17016007,17017007,17017006
4091,16016007,16016008,16017008,16017007,17016007,17016008,17017008,17017007
4092,16016008,16016009,16017009,16017008,17016008,17016009,17017009,17017008
4093,16016009,16016010,16017010,16017009,17016009,17016010,17017010,17017009
4094,16016010,16016011,16017011,16017010,17016010,17016011,17017011,17017010
4095,16016011,16016012,16017012,16017011,17016011,17016012,17017012,17017011
4096,16016012,16016013,16017013,16017012,17016012,17016013,17017013,17017012
4097,16016013,16016014,16017014,16017013,17016013,17016014,17017014,17017013
4098,16016014,16016015,16017015,16017014,17016014,17016015,17017015,17017014
4099,16016015,16016016,16017016,16017015,17016015,17016016,17017016,17017015
4100,16016016,16016017,16017017,16017016,17016016,17016017,17017017,17017016
4101,16017007,16017008,16018008,16018007,17017007,17017008,17018008,17018007
4102,16017008,16017009,16018009,16018008,17017008,17017009,17018009,17018008
4103,16017009,16017010,16018010,16018009,17017009,17017010,17018010,17018009
4104,16017010,16017011,16018011,16018010,17017010,17017011,17018011,17018010
4105,16017011,16017012,16018012,16018011,17017011,17017012,17018012,17018011
4106,16017012,16017013,16018013,16018012,17017012,17017013,17018013,17018012
4107,16017013,16017014,16018014,16018013,17017013,17017014,17018014,17018013
4108,16017014,16017015,16018015,16018014,17017014,17017015,17018015,17018014
4109,16018009,16018010,16019010,16019009,17018009,17018010,17019010,17019009
4110,16018010,16018011,16019011,16019010,17018010,17018011,17019011,17019010
4111,16018011,16018012,16019012,16019011,17018011,17018012,17019012,17019011
4112,16018012,16018013,16019013,16019012,17018012,17018013,17019013,17019012
*ELSET,ELSET=EBRIDGE
1,2,3,4,5,6,7,8,9,10,11,12,13,14,15,16
17,18,19,20,21,22,23,24,25,26,27,28,29,30,31,32
33,34,35,36,37,38,39,40,41,42,43,44,45,46,47,48
49,50,51,52,53,54,55,56,57,58,59,60,61,62,63,64
65,66,67,68,69,70,71,72,73,74,75,76,77,78,79,80
81,82,83,84,85,86,87,88,89,90,91,92,93,94,95,96
97,98,99,100,101,102,103,104,105,106,107,108,109,110,111,112
113,114,115,116,117,118,119,120,121,122,123,124,125,126,127,128
129,130,131,132,133,134,135,136,137,138,139,140,141,142,143,144
145,146,147,148,149,150,151,152,153,154,155,156,157,158,159,160
161,162,163,164,165,166,167,168,169,170,171,172,173,174,175,176
177,178,179,180,181,182,183,184,185,186,187,188,189,190,191,192
193,194,195,196,197,198,199,200,201,202,203,204,205,206,207,208
209,210,211,212,213,214,215,216,217,218,219,220,221,222,223,224
225,226,227,228,229,230,231,232,233,234,235,236,237,238,239,240
241,242,243,244,245,246,247,248,249,250,251,252,253,254,255,256
257,258,259,260,261,262,263,264,265,266,267,268,269,270,271,272
273,274,275,276,277,278,279,280,281,282,283,284,285,286,287,288
289,290,291,292,293,294,295,296,297,298,299,300,301,302,303,304
305,306,307,308,309,310,311,312,313,314,315,316,317,318,319,320
321,322,323,324,325,326,327,328,329,330,331,332,333,334,335,336
337,338,339,340,341,342,343,344,345,346,347,348,349,350,351,352
353,354,355,356,357,358,359,360,361,362,363,364,365,366,367,368
369,370,371,372,373,374,375,376,377,378,379,380,381,382,383,384
385,386,387,388,389,390,391,392,393,394,395,396,397,398,399,400
401,402,403,404,405,406,407,408,409,410,411,412,413,414,415,416
417,418,419,420,421,422,423,424,425,426,427,428,429,430,431,432
433,434,435,436,437,438,439,440,441,442,443,444,445,446,447,448
449,450,451,452,453,454,455,456,457,458,459,460,461,462,463,464
465,466,467,468,469,470,471,472,473,474,475,476,477,478,479,480
481,482,483,484,485,486,487,488,489,490,491,492,493,494,495,496
497,498,499,500,501,502,503,504,505,506,507,508,509,510,511,512
513,514,515,516,517,518,519,520,521,522,523,524,525,526,527,528
529,530,531,532,533,534,535,536,537,538,539,540,541,542,543,544
545,546,547,548,549,550,551,552,553,554,555,556,557,558,559,560
561,562,563,564,565,566,567,568,569,570,571,572,573,574,575,576
577,578,579,580,581,582,583,584,585,586,587,588,589,590,591,592
593,594,595,596,597,598,599,600,601,602,603,604,605,606,607,608
609,610,611,612,613,614,615,616,617,618,619,620,621,622,623,624
625,626,627,628,629,630,631,632,633,634,635,636,637,638,639,640
641,642,643,644,645,646,647,648,649,650,651,652,653,654,655,656
657,658,659,660,661,662,663,664,665,666,667,668,669,670,671,672
673,674,675,676,677,678,679,680,681,682,683,684,685,686,687,688
689,690,691,692,693,694,695,696,697,698,699,700,701,702,703,704
705,706,707,708,709,710,711,712,713,714,715,716,717,718,719,720
721,722,723,724,725,726,727,728,729,730,731,732,733,734,735,736
737,738,739,740,741,742,743,744,745,746,747,748,749,750,751,752
753,754,755,756,757,758,759,760,761,762,763,764,765,766,767,768
769,770,771,772,773,774,775,776,777,778,779,780,781,782,783,784
785,786,787,788,789,790,791,792,793,794,795,796,797,798,799,800
801,802,803,804,805,806,807,808,809,810,811,812,813,814,815,816
817,818,819,820,821,822,823,824,825,826,827,828,829,830,831,832
833,834,835,836,837,838,839,840,841,842,843,844,845,846,847,848
849,850,851,852,853,854,855,856,857,858,859,860,861,862,863,864
865,866,867,868,869,870,871,872,873,874,875,876,877,878,879,880
881,882,883,884,885,886,887,888,889,890,891,892,893,894,895,896
897,898,899,900,901,902,903,904,905,906,907,908,909,910,911,912
913,914,915,916,917,918,919,920,921,922,923,924,925,926,927,928
929,930,931,932,933,934,935,936,937,938,939,940,941,942,943,944
945,946,947,948,949,950,951,952,953,954,955,956,957,958,959,960
961,962,963,964,965,966,967,968,969,970,971,972,973,974,975,976
977,978,979,980,981,982,983,984,985,986,987,988,989,990,991,992
993,994,995,996,997,998,999,1000,1001,1002,1003,1004,1005,1006,1007,1008
1009,1010,1011,1012,1013,1014,1015,1016,1017,1018,1019,1020,1021,1022,1023,1024
1025,1026,1027,1028,1029,1030,1031,1032,1033,1034,1035,1036,1037,1038,1039,1040
1041,1042,1043,1044,1045,1046,1047,1048,1049,1050,1051,1052,1053,1054,1055,1056
1057,1058,1059,1060,1061,1062,1063,1064,1065,1066,1067,1068,1069,1070,1071,1072
1073,1074,1075,1076,1077,1078,1079,1080,1081,1082,1083,1084,1085,1086,1087,1088
1089,1090,1091,1092,1093,1094,1095,1096,1097,1098,1099,1100,1101,1102,1103,1104
1105,1106,1107,1108,1109,1110,1111,1112,1113,1114,1115,1116,1117,1118,1119,1120
1121,1122,1123,1124,1125,1126,1127,1128,1129,1130,1131,1132,1133,1134,1135,1136
1137,1138,1139,1140,1141,1142,1143,1144,1145,1146,1147,1148,1149,1150,1151,1152
1153,1154,1155,1156,1157,1158,1159,1160,1161,1162,1163,1164,1165,1166,1167,1168
1169,1170,1171,1172,1173,1174,1175,1176,1177,1178,1179,1180,1181,1182,1183,1184
1185,1186,1187,1188,1189,1190,1191,1192,1193,1194,1195,1196,1197,1198,1199,1200
1201,1202,1203,1204,1205,1206,1207,1208,1209,1210,1211,1212,1213,1214,1215,1216
1217,1218,1219,1220,1221,1222,1223,1224,1225,1226,1227,1228,1229,1230,1231,1232
1233,1234,1235,1236,1237,1238,1239,1240,1241,1242,1243,1244,1245,1246,1247,1248
1249,1250,1251,1252,1253,1254,1255,1256,1257,1258,1259,1260,1261,1262,1263,1264
1265,1266,1267,1268,1269,1270,1271,1272,1273,1274,1275,1276,1277,1278,1279,1280
1281,1282,1283,1284,1285,1286,1287,1288,1289,1290,1291,1292,1293,1294,1295,1296
1297,1298,1299,1300,1301,1302,1303,1304,1305,1306,1307,1308,1309,1310,1311,1312
1313,1314,1315,1316,1317,1318,1319,1320,1321,1322,1323,1324,1325,1326,1327,1328
1329,1330,1331,1332,1333,1334,1335,1336,1337,1338,1339,1340,1341,1342,1343,1344
1345,1346,1347,1348,1349,1350,1351,1352,1353,1354,1355,1356,1357,1358,1359,1360
1361,1362,1363,1364,1365,1366,1367,1368,1369,1370,1371,1372,1373,1374,1375,1376
1377,1378,1379,1380,1381,1382,1383,1384,1385,1386,1387,1388,1389,1390,1391,1392
1393,1394,1395,1396,1397,1398,1399,1400,1401,1402,1403,1404,1405,1406,1407,1408
1409,1410,1411,1412,1413,1414,1415,1416,1417,1418,1419,1420,1421,1422,1423,1424
1425,1426,1427,1428,1429,1430,1431,1432,1433,1434,1435,1436,1437,1438,1439,1440
1441,1442,1443,1444,1445,1446,1447,1448,1449,1450,1451,1452,1453,1454,1455,1456
1457,1458,1459,1460,1461,1462,1463,1464,1465,1466,1467,1468,1469,1470,1471,1472
*ELSET,ELSET=ESTAGEB
1473,1474,1475,1476,1477,1478,1479,1480,1481,1482,1483,1484,1485,1486,1487,1488
1489,1490,1491,1492,1493,1494,1495,1496,1497,1498,1499,1500,1501,1502,1503,1504
1505,1506,1507,1508,1509,1510,1511,1512,1513,1514,1515,1516,1517,1518,1519,1520
1521,1522,1523,1524,1525,1526,1527,1528,1529,1530,1531,1532,1533,1534,1535,1536
1537,1538,1539,1540,1541,1542,1543,1544,1545,1546,1547,1548,1549,1550,1551,1552
1553,1554,1555,1556,1557,1558,1559,1560,1561,1562,1563,1564,1565,1566,1567,1568
1569,1570,1571,1572,1573,1574,1575,1576,1577,1578,1579,1580,1581,1582,1583,1584
1585,1586,1587,1588,1589,1590,1591,1592,1593,1594,1595,1596,1597,1598,1599,1600
1601,1602,1603,1604,1605,1606,1607,1608,1609,1610,1611,1612,1613,1614,1615,1616
1617,1618,1619,1620,1621,1622,1623,1624,1625,1626,1627,1628,1629,1630,1631,1632
1633,1634,1635,1636,1637,1638,1639,1640,1641,1642,1643,1644,1645,1646,1647,1648
1649,1650,1651,1652,1653,1654,1655,1656,1657,1658,1659,1660,1661,1662,1663,1664
1665,1666,1667,1668,1669,1670,1671,1672,1673,1674,1675,1676,1677,1678,1679,1680
1681,1682,1683,1684,1685,1686,1687,1688,1689,1690,1691,1692,1693,1694,1695,1696
1697,1698,1699,1700,1701,1702,1703,1704,1705,1706,1707,1708,1709,1710,1711,1712
1713,1714,1715,1716,1717,1718,1719,1720,1721,1722,1723,1724,1725,1726,1727,1728
1729,1730,1731,1732,1733,1734,1735,1736,1737,1738,1739,1740,1741,1742,1743,1744
1745,1746,1747,1748,1749,1750,1751,1752,1753,1754,1755,1756,1757,1758,1759,1760
1761,1762,1763,1764,1765,1766,1767,1768,1769,1770,1771,1772,1773,1774,1775,1776
1777,1778,1779,1780,1781,1782,1783,1784,1785,1786,1787,1788,1789,1790,1791,1792
1793,1794,1795,1796,1797,1798,1799,1800,1801,1802,1803,1804,1805,1806,1807,1808
1809,1810,1811,1812,1813,1814,1815,1816,1817,1818,1819,1820,1821,1822,1823,1824
1825,1826,1827,1828,1829,1830,1831,1832,1833,1834,1835,1836,1837,1838,1839,1840
1841,1842,1843,1844,1845,1846,1847,1848,1849,1850,1851,1852,1853,1854,1855,1856
1857,1858,1859,1860,1861,1862,1863,1864,1865,1866,1867,1868,1869,1870,1871,1872
1873,1874,1875,1876,1877,1878,1879,1880,1881,1882,1883,1884,1885,1886,1887,1888
1889,1890,1891,1892,1893,1894,1895,1896,1897,1898,1899,1900,1901,1902,1903,1904
1905,1906,1907,1908,1909,1910,1911,1912,1913,1914,1915,1916,1917,1918,1919,1920
1921,1922,1923,1924,1925,1926,1927,1928,1929,1930,1931,1932,1933,1934,1935,1936
1937,1938,1939,1940,1941,1942,1943,1944,1945,1946,1947,1948,1949,1950,1951,1952
1953,1954,1955,1956,1957,1958,1959,1960,1961,1962,1963,1964,1965,1966,1967,1968
1969,1970,1971,1972,1973,1974,1975,1976,1977,1978,1979,1980,1981,1982,1983,1984
1985,1986,1987,1988,1989,1990,1991,1992,1993,1994,1995,1996,1997,1998,1999,2000
2001,2002,2003,2004,2005,2006,2007,2008,2009,2010,2011,2012,2013,2014,2015,2016
2017,2018,2019,2020,2021,2022,2023,2024,2025,2026,2027,2028,2029,2030,2031,2032
2033,2034,2035,2036,2037,2038,2039,2040,2041,2042,2043,2044,2045,2046,2047,2048
2049,2050,2051,2052,2053,2054,2055,2056,2057,2058,2059,2060,2061,2062,2063,2064
2065,2066,2067,2068,2069,2070,2071,2072,2073,2074,2075,2076,2077,2078,2079,2080
2081,2082,2083,2084,2085,2086,2087,2088,2089,2090,2091,2092,2093,2094,2095,2096
2097,2098,2099,2100,2101,2102,2103,2104,2105,2106,2107,2108,2109,2110,2111,2112
2113,2114,2115,2116,2117,2118,2119,2120,2121,2122,2123,2124,2125,2126,2127,2128
2129,2130,2131,2132,2133,2134,2135,2136,2137,2138,2139,2140,2141,2142,2143,2144
2145,2146,2147,2148,2149,2150,2151,2152,2153,2154,2155,2156,2157,2158,2159,2160
2161,2162,2163,2164,2165,2166,2167,2168,2169,2170,2171,2172,2173,2174,2175,2176
2177,2178,2179,2180,2181,2182,2183,2184,2185,2186,2187,2188,2189,2190,2191,2192
2193,2194,2195,2196,2197,2198,2199,2200,2201,2202,2203,2204,2205,2206,2207,2208
2209,2210,2211,2212,2213,2214,2215,2216,2217,2218,2219,2220,2221,2222,2223,2224
2225,2226,2227,2228,2229,2230,2231,2232,2233,2234,2235,2236,2237,2238,2239,2240
2241,2242,2243,2244,2245,2246,2247,2248,2249,2250,2251,2252,2253,2254,2255,2256
2257,2258,2259,2260,2261,2262,2263,2264,2265,2266,2267,2268,2269,2270,2271,2272
2273,2274,2275,2276,2277,2278,2279,2280,2281,2282,2283,2284,2285,2286,2287,2288
2289,2290,2291,2292,2293,2294,2295,2296,2297,2298,2299,2300,2301,2302,2303,2304
2305,2306,2307,2308,2309,2310,2311,2312,2313,2314,2315,2316,2317,2318,2319,2320
2321,2322,2323,2324,2325,2326,2327,2328,2329,2330,2331,2332,2333,2334,2335,2336
2337,2338,2339,2340,2341,2342,2343,2344,2345,2346,2347,2348,2349,2350,2351,2352
2353,2354,2355,2356,2357,2358,2359,2360,2361,2362,2363,2364,2365,2366,2367,2368
2369,2370,2371,2372,2373,2374,2375,2376,2377,2378,2379,2380,2381,2382,2383,2384
2385,2386,2387,2388,2389,2390,2391,2392,2393,2394,2395,2396,2397,2398,2399,2400
2401,2402,2403,2404,2405,2406,2407,2408,2409,2410,2411,2412,2413,2414,2415,2416
2417,2418,2419,2420,2421,2422,2423,2424,2425,2426,2427,2428,2429,2430,2431,2432
2433,2434,2435,2436,2437,2438,2439,2440,2441,2442,2443,2444,2445,2446,2447,2448
2449,2450,2451,2452,2453,2454,2455,2456,2457,2458,2459,2460,2461,2462,2463,2464
2465,2466,2467,2468,2469,2470,2471,2472,2473,2474,2475,2476,2477,2478,2479,2480
2481,2482,2483,2484,2485,2486,2487,2488,2489,2490,2491,2492,2493,2494,2495,2496
2497,2498,2499,2500,2501,2502,2503,2504,2505,2506,2507,2508,2509,2510,2511,2512
2513,2514,2515,2516,2517,2518,2519,2520,2521,2522,2523,2524,2525,2526,2527,2528
2529,2530,2531,2532,2533,2534,2535,2536,2537,2538,2539,2540,2541,2542,2543,2544
2545,2546,2547,2548,2549,2550,2551,2552,2553,2554,2555,2556,2557,2558,2559,2560
2561,2562,2563,2564,2565,2566,2567,2568,2569,2570,2571,2572,2573,2574,2575,2576
2577,2578,2579,2580,2581,2582,2583,2584,2585,2586,2587,2588,2589,2590,2591,2592
2593,2594,2595,2596,2597,2598,2599,2600,2601,2602,2603,2604,2605,2606,2607,2608
2609,2610,2611,2612,2613,2614,2615,2616,2617,2618,2619,2620,2621,2622,2623,2624
2625,2626,2627,2628,2629,2630,2631,2632,2633,2634,2635,2636,2637,2638,2639,2640
2641,2642,2643,2644,2645,2646,2647,2648,2649,2650,2651,2652,2653,2654,2655,2656
2657,2658,2659,2660,2661,2662,2663,2664,2665,2666,2667,2668,2669,2670,2671,2672
2673,2674,2675,2676,2677,2678,2679,2680,2681,2682,2683,2684,2685,2686,2687,2688
2689,2690,2691,2692,2693,2694,2695,2696,2697,2698,2699,2700,2701,2702,2703,2704
2705,2706,2707,2708,2709,2710,2711,2712,2713,2714,2715,2716,2717,2718,2719,2720
2721,2722,2723,2724,2725,2726,2727,2728,2729,2730,2731,2732,2733,2734,2735,2736
2737,2738,2739,2740,2741,2742,2743,2744,2745,2746,2747,2748,2749,2750,2751,2752
2753,2754,2755,2756,2757,2758,2759,2760,2761,2762,2763,2764,2765,2766,2767,2768
2769,2770,2771,2772,2773,2774,2775,2776,2777,2778,2779,2780,2781,2782,2783,2784
2785,2786,2787,2788,2789,2790,2791,2792,2793,2794,2795,2796,2797,2798,2799,2800
2801,2802,2803,2804,2805,2806,2807,2808,2809,2810,2811,2812,2813,2814,2815,2816
2817,2818,2819,2820,2821,2822,2823,2824,2825,2826,2827,2828,2829,2830,2831,2832
2833,2834,2835,2836,2837,2838,2839,2840,2841,2842,2843,2844,2845,2846,2847,2848
2849,2850,2851,2852,2853,2854,2855,2856,2857,2858,2859,2860,2861,2862,2863,2864
2865,2866,2867,2868,2869,2870,2871,2872,2873,2874,2875,2876,2877,2878,2879,2880
2881,2882,2883,2884,2885,2886,2887,2888,2889,2890,2891,2892,2893,2894,2895,2896
2897,2898,2899,2900,2901,2902,2903,2904,2905,2906,2907,2908,2909,2910,2911,2912
2913,2914,2915,2916,2917,2918,2919,2920,2921,2922,2923,2924,2925,2926,2927,2928
2929,2930,2931,2932,2933,2934,2935,2936,2937,2938,2939,2940,2941,2942,2943,2944
2945,2946,2947,2948,2949,2950,2951,2952,2953,2954,2955,2956,2957,2958,2959,2960
2961,2962,2963,2964,2965,2966,2967,2968,2969,2970,2971,2972,2973,2974,2975,2976
2977,2978,2979,2980,2981,2982,2983,2984,2985,2986,2987,2988,2989,2990,2991,2992
2993,2994,2995,2996,2997,2998,2999,3000,3001,3002,3003,3004,3005,3006,3007,3008
3009,3010,3011,3012,3013,3014,3015,3016,3017,3018,3019,3020,3021,3022,3023,3024
3025,3026,3027,3028,3029,3030,3031,3032,3033,3034,3035,3036,3037,3038,3039,3040
3041,3042,3043,3044,3045,3046,3047,3048,3049,3050,3051,3052,3053,3054,3055,3056
3057,3058,3059,3060,3061,3062,3063,3064,3065,3066,3067,3068,3069,3070,3071,3072
3073,3074,3075,3076,3077,3078,3079,3080,3081,3082,3083,3084,3085,3086,3087,3088
3089,3090,3091,3092,3093,3094,3095,3096,3097,3098,3099,3100,3101,3102,3103,3104
3105,3106,3107,3108,3109,3110,3111,3112,3113,3114,3115,3116,3117,3118,3119,3120
3121,3122,3123,3124,3125,3126,3127,3128,3129,3130,3131,3132,3133,3134,3135,3136
3137,3138,3139,3140,3141,3142,3143,3144,3145,3146,3147,3148,3149,3150,3151,3152
3153,3154,3155,3156,3157,3158,3159,3160,3161,3162,3163,3164,3165,3166,3167,3168
3169,3170,3171,3172,3173,3174,3175,3176,3177,3178,3179,3180,3181,3182,3183,3184
3185,3186,3187,3188,3189,3190,3191,3192,3193,3194,3195,3196,3197,3198,3199,3200
3201,3202,3203,3204,3205,3206,3207,3208,3209,3210,3211,3212,3213,3214,3215,3216
3217,3218,3219,3220,3221,3222,3223,3224,3225,3226,3227,3228,3229,3230,3231,3232
3233,3234,3235,3236,3237,3238,3239,3240,3241,3242,3243,3244,3245,3246,3247,3248
3249,3250,3251,3252,3253,3254,3255,3256,3257,3258,3259,3260,3261,3262,3263,3264
3265,3266,3267,3268,3269,3270,3271,3272,3273,3274,3275,3276,3277,3278,3279,3280
*ELSET,ELSET=ESTAGEA
3281,3282,3283,3284,3285,3286,3287,3288,3289,3290,3291,3292,3293,3294,3295,3296
3297,3298,3299,3300,3301,3302,3303,3304,3305,3306,3307,3308,3309,3310,3311,3312
3313,3314,3315,3316,3317,3318,3319,3320,3321,3322,3323,3324,3325,3326,3327,3328
3329,3330,3331,3332,3333,3334,3335,3336,3337,3338,3339,3340,3341,3342,3343,3344
3345,3346,3347,3348,3349,3350,3351,3352,3353,3354,3355,3356,3357,3358,3359,3360
3361,3362,3363,3364,3365,3366,3367,3368,3369,3370,3371,3372,3373,3374,3375,3376
3377,3378,3379,3380,3381,3382,3383,3384,3385,3386,3387,3388,3389,3390,3391,3392
3393,3394,3395,3396,3397,3398,3399,3400,3401,3402,3403,3404,3405,3406,3407,3408
3409,3410,3411,3412,3413,3414,3415,3416,3417,3418,3419,3420,3421,3422,3423,3424
3425,3426,3427,3428,3429,3430,3431,3432,3433,3434,3435,3436,3437,3438,3439,3440
3441,3442,3443,3444,3445,3446,3447,3448,3449,3450,3451,3452,3453,3454,3455,3456
3457,3458,3459,3460,3461,3462,3463,3464,3465,3466,3467,3468,3469,3470,3471,3472
3473,3474,3475,3476,3477,3478,3479,3480,3481,3482,3483,3484,3485,3486,3487,3488
3489,3490,3491,3492,3493,3494,3495,3496,3497,3498,3499,3500,3501,3502,3503,3504
3505,3506,3507,3508,3509,3510,3511,3512,3513,3514,3515,3516,3517,3518,3519,3520
3521,3522,3523,3524,3525,3526,3527,3528,3529,3530,3531,3532,3533,3534,3535,3536
3537,3538,3539,3540,3541,3542,3543,3544,3545,3546,3547,3548,3549,3550,3551,3552
3553,3554,3555,3556,3557,3558,3559,3560,3561,3562,3563,3564,3565,3566,3567,3568
3569,3570,3571,3572,3573,3574,3575,3576,3577,3578,3579,3580,3581,3582,3583,3584
3585,3586,3587,3588,3589,3590,3591,3592,3593,3594,3595,3596,3597,3598,3599,3600
3601,3602,3603,3604,3605,3606,3607,3608,3609,3610,3611,3612,3613,3614,3615,3616
3617,3618,3619,3620,3621,3622,3623,3624,3625,3626,3627,3628,3629,3630,3631,3632
3633,3634,3635,3636,3637,3638,3639,3640,3641,3642,3643,3644,3645,3646,3647,3648
3649,3650,3651,3652,3653,3654,3655,3656,3657,3658,3659,3660,3661,3662,3663,3664
3665,3666,3667,3668,3669,3670,3671,3672,3673,3674,3675,3676,3677,3678,3679,3680
3681,3682,3683,3684,3685,3686,3687,3688,3689,3690,3691,3692,3693,3694,3695,3696
3697,3698,3699,3700,3701,3702,3703,3704,3705,3706,3707,3708,3709,3710,3711,3712
3713,3714,3715,3716,3717,3718,3719,3720,3721,3722,3723,3724,3725,3726,3727,3728
3729,3730,3731,3732,3733,3734,3735,3736,3737,3738,3739,3740,3741,3742,3743,3744
3745,3746,3747,3748,3749,3750,3751,3752,3753,3754,3755,3756,3757,3758,3759,3760
3761,3762,3763,3764,3765,3766,3767,3768,3769,3770,3771,3772,3773,3774,3775,3776
3777,3778,3779,3780,3781,3782,3783,3784,3785,3786,3787,3788,3789,3790,3791,3792
3793,3794,3795,3796,3797,3798,3799,3800,3801,3802,3803,3804,3805,3806,3807,3808
3809,3810,3811,3812,3813,3814,3815,3816,3817,3818,3819,3820,3821,3822,3823,3824
3825,3826,3827,3828,3829,3830,3831,3832,3833,3834,3835,3836,3837,3838,3839,3840
3841,3842,3843,3844,3845,3846,3847,3848,3849,3850,3851,3852,3853,3854,3855,3856
3857,3858,3859,3860,3861,3862,3863,3864,3865,3866,3867,3868,3869,3870,3871,3872
3873,3874,3875,3876,3877,3878,3879,3880,3881,3882,3883,3884,3885,3886,3887,3888
3889,3890,3891,3892,3893,3894,3895,3896,3897,3898,3899,3900,3901,3902,3903,3904
3905,3906,3907,3908,3909,3910,3911,3912,3913,3914,3915,3916,3917,3918,3919,3920
3921,3922,3923,3924,3925,3926,3927,3928,3929,3930,3931,3932,3933,3934,3935,3936
3937,3938,3939,3940,3941,3942,3943,3944,3945,3946,3947,3948,3949,3950,3951,3952
3953,3954,3955,3956,3957,3958,3959,3960,3961,3962,3963,3964,3965,3966,3967,3968
3969,3970,3971,3972,3973,3974,3975,3976,3977,3978,3979,3980,3981,3982,3983,3984
3985,3986,3987,3988,3989,3990,3991,3992,3993,3994,3995,3996,3997,3998,3999,4000
4001,4002,4003,4004,4005,4006,4007,4008,4009,4010,4011,4012,4013,4014,4015,4016
4017,4018,4019,4020,4021,4022,4023,4024,4025,4026,4027,4028,4029,4030,4031,4032
4033,4034,4035,4036,4037,4038,4039,4040,4041,4042,4043,4044,4045,4046,4047,4048
4049,4050,4051,4052,4053,4054,4055,4056,4057,4058,4059,4060,4061,4062,4063,4064
4065,4066,4067,4068,4069,4070,4071,4072,4073,4074,4075,4076,4077,4078,4079,4080
4081,4082,4083,4084,4085,4086,4087,4088,4089,4090,4091,4092,4093,4094,4095,4096
4097,4098,4099,4100,4101,4102,4103,4104,4105,4106,4107,4108,4109,4110,4111,4112
*ELSET,ELSET=EPROBES
1430,2775,4083,546
*NSET,NSET=NFIXED
1000001,1000002,1000003,1000004,1000005,1000006,1000007,1000008,1000009,1000010,1000011,1000012,1000013,1000014,1000015,1000016
1000017,1000018,1000019,1000020,1000021,1001001,1001002,1001003,1001004,1001005,1001006,1001007,1001008,1001009,1001010,1001011
1001012,1001013,1001014,1001015,1001016,1001017,1001018,1001019,1001020,1001021,1002001,1002002,1002003,1002004,1002005,1002006
1002007,1002008,1002009,1002010,1002011,1002012,1002013,1002014,1002015,1002016,1002017,1002018,1002019,1002020,1002021,1003001
1003002,1003003,1003004,1003005,1003006,1003007,1003008,1003009,1003010,1003011,1003012,1003013,1003014,1003015,1003016,1003017
1003018,1003019,1003020,1003021,1004001,1004002,1004003,1004004,1004005,1004006,1004007,1004008,1004009,1004010,1004011,1004012
1004013,1004014,1004015,1004016,1004017,1004018,1004019,1004020,1004021,1005001,1005002,1005003,1005004,1005005,1005006,1005007
1005008,1005009,1005010,1005011,1005012,1005013,1005014,1005015,1005016,1005017,1005018,1005019,1005020,1005021,1006001,1006002
1006003,1006004,1006005,1006006,1006007,1006008,1006009,1006010,1006011,1006012,1006013,1006014,1006015,1006016,1006017,1006018
1006019,1006020,1006021,1007001,1007002,1007003,1007004,1007005,1007006,1007007,1007008,1007009,1007010,1007011,1007012,1007013
1007014,1007015,1007016,1007017,1007018,1007019,1007020,1007021,1008001,1008002,1008003,1008004,1008005,1008006,1008007,1008008
1008009,1008013,1008014,1008015,1008016,1008017,1008018,1008019,1008020,1008021,1009001,1009002,1009003,1009004,1009005,1009006
1009007,1009008,1009014,1009015,1009016,1009017,1009018,1009019,1009020,1009021,1010001,1010002,1010003,1010004,1010005,1010006
1010007,1010008,1010014,1010015,1010016,1010017,1010018,1010019,1010020,1010021,1011001,1011002,1011003,1011004,1011005,1011006
1011007,1011008,1011014,1011015,1011016,1011017,1011018,1011019,1011020,1011021,1012001,1012002,1012003,1012004,1012005,1012006
1012007,1012008,1012009,1012013,1012014,1012015,1012016,1012017,1012018,1012019,1012020,1012021,1013001,1013002,1013003,1013004
1013005,1013006,1013007,1013008,1013009,1013010,1013011,1013012,1013013,1013014,1013015,1013016,1013017,1013018,1013019,1013020
1013021,1014001,1014002,1014003,1014004,1014005,1014006,1014007,1014008,1014009,1014010,1014011,1014012,1014013,1014014,1014015
1014016,1014017,1014018,1014019,1014020,1014021,1015001,1015002,1015003,1015004,1015005,1015006,1015007,1015008,1015009,1015010
1015011,1015012,1015013,1015014,1015015,1015016,1015017,1015018,1015019,1015020,1015021,1016001,1016002,1016003,1016004,1016005
1016006,1016007,1016008,1016009,1016010,1016011,1016012,1016013,1016014,1016015,1016016,1016017,1016018,1016019,1016020,1016021
1017001,1017002,1017003,1017004,1017005,1017006,1017007,1017008,1017009,1017010,1017011,1017012,1017013,1017014,1017015,1017016
1017017,1017018,1017019,1017020,1017021,1018001,1018002,1018003,1018004,1018005,1018006,1018007,1018008,1018009,1018010,1018011
1018012,1018013,1018014,1018015,1018016,1018017,1018018,1018019,1018020,1018021,1019001,1019002,1019003,1019004,1019005,1019006
1019007,1019008,1019009,1019010,1019011,1019012,1019013,1019014,1019015,1019016,1019017,1019018,1019019,1019020,1019021,1020001
1020002,1020003,1020004,1020005,1020006,1020007,1020008,1020009,1020010,1020011,1020012,1020013,1020014,1020015,1020016,1020017
1020018,1020019,1020020,1020021
*NSET,NSET=NRP
99000000
*NSET,NSET=NS_ARM_SPIDER
17004009,17004010,17005008,17005009,17005010,17007016,17008016,17008017,17009016,17009017,17011005,17011006,17012005,17012006,17013006,17015012
17015013,17015014,17016012,17016013
*NSET,NSET=NS_M5_1
12012018,12013017,12013018,12013019,12014018,13012018,13013017,13013018,13013019,13014018
*NSET,NSET=NS_M5_2
12016014,12017013,12017014,12017015,12018014,13016014,13017013,13017014,13017015,13018014
*NSET,NSET=NS_M5_3
12016008,12017007,12017008,12017009,12018008,13016008,13017007,13017008,13017009,13018008
*NSET,NSET=NS_M5_4
12012004,12013003,12013004,12013005,12014004,13012004,13013003,13013004,13013005,13014004
*NSET,NSET=NS_M5_5
12006004,12007003,12007004,12007005,12008004,13006004,13007003,13007004,13007005,13008004
*NSET,NSET=NS_M5_6
12002008,12003007,12003008,12003009,12004008,13002008,13003007,13003008,13003009,13004008
*NSET,NSET=NS_M5_7
12002014,12003013,12003014,12003015,12004014,13002014,13003013,13003014,13003015,13004014
*NSET,NSET=NS_M5_8
12006018,12007017,12007018,12007019,12008018,13006018,13007017,13007018,13007019,13008018
*NSET,NSET=NS_M6_1
5018019,5018020,5018021,5019019,5019020,5019021,5020019,5020020,6018019,6018020,6018021,6019019,6019020,6019021,6020019,6020020
*NSET,NSET=NS_M6_2
5000019,5000020,5001019,5001020,5001021,5002019,5002020,5002021,6000019,6000020,6001019,6001020,6001021,6002019,6002020,6002021
*NSET,NSET=NS_M6_3
5018001,5018002,5018003,5019001,5019002,5019003,5020002,5020003,6018001,6018002,6018003,6019001,6019002,6019003,6020002,6020003
*NSET,NSET=NS_M6_4
5000002,5000003,5001001,5001002,5001003,5002001,5002002,5002003,6000002,6000003,6001001,6001002,6001003,6002001,6002002,6002003
*MATERIAL,NAME=AL6061_T6_CAND
*ELASTIC
68300.0,0.33
*DENSITY
2.700e-09
*SOLID SECTION,ELSET=EBRIDGE,MATERIAL=AL6061_T6_CAND
*SOLID SECTION,ELSET=ESTAGEB,MATERIAL=AL6061_T6_CAND
*SOLID SECTION,ELSET=ESTAGEA,MATERIAL=AL6061_T6_CAND
*BOUNDARY
NFIXED,ENCASTRE
** joint couplings (bolt-disk rigid zones) -- identical to solved FEA-1
*SURFACE,TYPE=NODE,NAME=S_NS_ARM_SPIDER
NS_ARM_SPIDER,
*SURFACE,TYPE=NODE,NAME=S_NS_M5_1
NS_M5_1,
*SURFACE,TYPE=NODE,NAME=S_NS_M5_2
NS_M5_2,
*SURFACE,TYPE=NODE,NAME=S_NS_M5_3
NS_M5_3,
*SURFACE,TYPE=NODE,NAME=S_NS_M5_4
NS_M5_4,
*SURFACE,TYPE=NODE,NAME=S_NS_M5_5
NS_M5_5,
*SURFACE,TYPE=NODE,NAME=S_NS_M5_6
NS_M5_6,
*SURFACE,TYPE=NODE,NAME=S_NS_M5_7
NS_M5_7,
*SURFACE,TYPE=NODE,NAME=S_NS_M5_8
NS_M5_8,
*SURFACE,TYPE=NODE,NAME=S_NS_M6_1
NS_M6_1,
*SURFACE,TYPE=NODE,NAME=S_NS_M6_2
NS_M6_2,
*SURFACE,TYPE=NODE,NAME=S_NS_M6_3
NS_M6_3,
*SURFACE,TYPE=NODE,NAME=S_NS_M6_4
NS_M6_4,
*COUPLING,CONSTRAINT NAME=M6_1,REF NODE=99000100,SURFACE=S_NS_M6_1
*KINEMATIC
1,6
*COUPLING,CONSTRAINT NAME=M6_2,REF NODE=99000101,SURFACE=S_NS_M6_2
*KINEMATIC
1,6
*COUPLING,CONSTRAINT NAME=M6_3,REF NODE=99000102,SURFACE=S_NS_M6_3
*KINEMATIC
1,6
*COUPLING,CONSTRAINT NAME=M6_4,REF NODE=99000103,SURFACE=S_NS_M6_4
*KINEMATIC
1,6
*COUPLING,CONSTRAINT NAME=M5_1,REF NODE=99000200,SURFACE=S_NS_M5_1
*KINEMATIC
1,6
*COUPLING,CONSTRAINT NAME=M5_2,REF NODE=99000201,SURFACE=S_NS_M5_2
*KINEMATIC
1,6
*COUPLING,CONSTRAINT NAME=M5_3,REF NODE=99000202,SURFACE=S_NS_M5_3
*KINEMATIC
1,6
*COUPLING,CONSTRAINT NAME=M5_4,REF NODE=99000203,SURFACE=S_NS_M5_4
*KINEMATIC
1,6
*COUPLING,CONSTRAINT NAME=M5_5,REF NODE=99000204,SURFACE=S_NS_M5_5
*KINEMATIC
1,6
*COUPLING,CONSTRAINT NAME=M5_6,REF NODE=99000205,SURFACE=S_NS_M5_6
*KINEMATIC
1,6
*COUPLING,CONSTRAINT NAME=M5_7,REF NODE=99000206,SURFACE=S_NS_M5_7
*KINEMATIC
1,6
*COUPLING,CONSTRAINT NAME=M5_8,REF NODE=99000207,SURFACE=S_NS_M5_8
*KINEMATIC
1,6
*COUPLING,CONSTRAINT NAME=ARM_SPIDER,REF NODE=99000000,SURFACE=S_NS_ARM_SPIDER
*KINEMATIC
1,6
*STEP,NAME=QS_STEP,NLGEOM=NO
*STATIC
1.0,1.0
*CLOAD
99000000,2,0.62101640472074293
99000000,6,434.71148330452002
*NODE PRINT,NSET=NFIXED
RF
*NODE PRINT,NSET=NRP
U
*EL PRINT,ELSET=EPROBES
S
*ENERGY PRINT
*OUTPUT,FIELD,VARIABLE=PRESELECT
*OUTPUT,HISTORY
*ENERGY OUTPUT
*END STEP
