*HEADING
FEA1_M3R_INTERFACE  case=CAPTURE_150KG_QS  mesh=MEDIUM  material=AL6061_T6_CAND
M7 WP7 FEA_OPERATIONAL -- operational on-orbit quasi-static screen.
Units: N, mm, MPa, tonne. Linear static. DESIGN_INDICATIVE results only.
** ASSUMPTION: LINEAR_STATIC_SMALL_DISPLACEMENT (NLGEOM off; loads are milli-g level)
** ASSUMPTION: BUS_SIDE_ENCASTRE_ASSUMPTION: BC-BUS-001 bus stiffness authority is HOLD; z=0 face fully clamped = stiff-boundary design bound
** ASSUMPTION: BOLT_DISK_KINEMATIC_COUPLING_ASSUMPTION: M6/M5/M4 joints modelled as rigid coupling disks (r_b=12/10/10 mm, auto-grow to >=1 node/face, recorded); no preload, no friction, no slip
** ASSUMPTION: ARM_BASE_RIGID_SPIDER_ASSUMPTION: B601 base flange stiffness >> 8 mm ring; single RP spider onto 4 as-built M4 disks; sensitivity covered by the 3-level mesh convergence series (CDR rigid_spider rule)
** ASSUMPTION: NO_CONTACT_NO_PRELOAD_NO_FRICTION: CDR joint mechanics HOLD; faces outside bolt disks untied (separation/interpenetration possible; Level-1 bound)
** ASSUMPTION: STAGE_B_IDEALIZED_ANNULAR_PLATE: pocket/recess not resolved; bore dia100 through bottom 2 layers; centre web r<50 modelled 4.0 mm (real 5.595)
** ASSUMPTION: STAGE_A_IDEALIZED_UNIFORM_RING: OD150/ID40 x 8.0 uniform; spigot, recess, counterbores not resolved
** ASSUMPTION: BRIDGE_CORNER_RADIUS_OMITTED: R4 corners modelled square; all boundaries stepped at element corners
** ASSUMPTION: SMALL_HOLES_NOT_CUT: dia6.6/5.5/4.6 holes represented by coupling disks, not voids (locally stiffer); hole-edge peak stress NOT qualified here
** ASSUMPTION: POISSON_ASSUMPTION: nu=0.33 for both Al candidates (not in M6 library)
** ASSUMPTION: MATERIALS_CANDIDATE: 6061-T6 / 7075-T651 elastic constants from M6 WP4 library, classification PROTOTYPE_CANDIDATE; margins DESIGN_INDICATIVE only
** ASSUMPTION: DYNAMIC_FACTOR_ASSUMPTION: quasi-static equivalence F_eq=DAF*J/dt, DAF=2.0, dt=0.1 s; both declared assumptions, research-bound
** ASSUMPTION: LOAD_DIRECTION_ASSUMPTION: transverse +y force plus bending moment about +z; worst-axis alignment declared (near-axisymmetric stack)
** ASSUMPTION: MEMORY_GATE_MESH_ADAPTATION: seeds 16/10/8 mm replace draft 4/2/1 mm; <=4000 C3D8R; 6.7 mm ligament NOT resolved with 3 elements; convergence assessed on global maxima trend only
** ASSUMPTION: ARM_LOADS_BOUNDED_BY_ASSUMPTION: quintic peak accel from LC-010 trajectory x r_eff=0.7 m; e-stop = 2x maneuver; arm inertia tensor not reduced (arm cases shown to be non-governing)
** Case load: F_y=13.5527 N, M_z=19073.3 N*mm (F=DAF*J/dt; M=F*L_grasp+DAF*C/dt (envelope row CAP150_030))
**
*NODE
1,-80.000000,-80.000000,0.000000
2,-70.000000,-80.000000,0.000000
3,-60.000000,-80.000000,0.000000
4,-50.000000,-80.000000,0.000000
5,-40.000000,-80.000000,0.000000
6,-30.000000,-80.000000,0.000000
7,-20.000000,-80.000000,0.000000
8,-10.000000,-80.000000,0.000000
9,0.000000,-80.000000,0.000000
10,10.000000,-80.000000,0.000000
11,20.000000,-80.000000,0.000000
12,30.000000,-80.000000,0.000000
13,40.000000,-80.000000,0.000000
14,50.000000,-80.000000,0.000000
15,60.000000,-80.000000,0.000000
16,70.000000,-80.000000,0.000000
17,80.000000,-80.000000,0.000000
1001,-80.000000,-70.000000,0.000000
1002,-70.000000,-70.000000,0.000000
1003,-60.000000,-70.000000,0.000000
1004,-50.000000,-70.000000,0.000000
1005,-40.000000,-70.000000,0.000000
1006,-30.000000,-70.000000,0.000000
1007,-20.000000,-70.000000,0.000000
1008,-10.000000,-70.000000,0.000000
1009,0.000000,-70.000000,0.000000
1010,10.000000,-70.000000,0.000000
1011,20.000000,-70.000000,0.000000
1012,30.000000,-70.000000,0.000000
1013,40.000000,-70.000000,0.000000
1014,50.000000,-70.000000,0.000000
1015,60.000000,-70.000000,0.000000
1016,70.000000,-70.000000,0.000000
1017,80.000000,-70.000000,0.000000
2001,-80.000000,-60.000000,0.000000
2002,-70.000000,-60.000000,0.000000
2003,-60.000000,-60.000000,0.000000
2004,-50.000000,-60.000000,0.000000
2005,-40.000000,-60.000000,0.000000
2006,-30.000000,-60.000000,0.000000
2007,-20.000000,-60.000000,0.000000
2008,-10.000000,-60.000000,0.000000
2009,0.000000,-60.000000,0.000000
2010,10.000000,-60.000000,0.000000
2011,20.000000,-60.000000,0.000000
2012,30.000000,-60.000000,0.000000
2013,40.000000,-60.000000,0.000000
2014,50.000000,-60.000000,0.000000
2015,60.000000,-60.000000,0.000000
2016,70.000000,-60.000000,0.000000
2017,80.000000,-60.000000,0.000000
3001,-80.000000,-50.000000,0.000000
3002,-70.000000,-50.000000,0.000000
3003,-60.000000,-50.000000,0.000000
3004,-50.000000,-50.000000,0.000000
3005,-40.000000,-50.000000,0.000000
3006,-30.000000,-50.000000,0.000000
3007,-20.000000,-50.000000,0.000000
3008,-10.000000,-50.000000,0.000000
3009,0.000000,-50.000000,0.000000
3010,10.000000,-50.000000,0.000000
3011,20.000000,-50.000000,0.000000
3012,30.000000,-50.000000,0.000000
3013,40.000000,-50.000000,0.000000
3014,50.000000,-50.000000,0.000000
3015,60.000000,-50.000000,0.000000
3016,70.000000,-50.000000,0.000000
3017,80.000000,-50.000000,0.000000
4001,-80.000000,-40.000000,0.000000
4002,-70.000000,-40.000000,0.000000
4003,-60.000000,-40.000000,0.000000
4004,-50.000000,-40.000000,0.000000
4005,-40.000000,-40.000000,0.000000
4006,-30.000000,-40.000000,0.000000
4007,-20.000000,-40.000000,0.000000
4008,-10.000000,-40.000000,0.000000
4009,0.000000,-40.000000,0.000000
4010,10.000000,-40.000000,0.000000
4011,20.000000,-40.000000,0.000000
4012,30.000000,-40.000000,0.000000
4013,40.000000,-40.000000,0.000000
4014,50.000000,-40.000000,0.000000
4015,60.000000,-40.000000,0.000000
4016,70.000000,-40.000000,0.000000
4017,80.000000,-40.000000,0.000000
5001,-80.000000,-30.000000,0.000000
5002,-70.000000,-30.000000,0.000000
5003,-60.000000,-30.000000,0.000000
5004,-50.000000,-30.000000,0.000000
5005,-40.000000,-30.000000,0.000000
5006,-30.000000,-30.000000,0.000000
5007,-20.000000,-30.000000,0.000000
5008,-10.000000,-30.000000,0.000000
5009,0.000000,-30.000000,0.000000
5010,10.000000,-30.000000,0.000000
5011,20.000000,-30.000000,0.000000
5012,30.000000,-30.000000,0.000000
5013,40.000000,-30.000000,0.000000
5014,50.000000,-30.000000,0.000000
5015,60.000000,-30.000000,0.000000
5016,70.000000,-30.000000,0.000000
5017,80.000000,-30.000000,0.000000
6001,-80.000000,-20.000000,0.000000
6002,-70.000000,-20.000000,0.000000
6003,-60.000000,-20.000000,0.000000
6004,-50.000000,-20.000000,0.000000
6005,-40.000000,-20.000000,0.000000
6006,-30.000000,-20.000000,0.000000
6007,-20.000000,-20.000000,0.000000
6008,-10.000000,-20.000000,0.000000
6009,0.000000,-20.000000,0.000000
6010,10.000000,-20.000000,0.000000
6011,20.000000,-20.000000,0.000000
6012,30.000000,-20.000000,0.000000
6013,40.000000,-20.000000,0.000000
6014,50.000000,-20.000000,0.000000
6015,60.000000,-20.000000,0.000000
6016,70.000000,-20.000000,0.000000
6017,80.000000,-20.000000,0.000000
7001,-80.000000,-10.000000,0.000000
7002,-70.000000,-10.000000,0.000000
7003,-60.000000,-10.000000,0.000000
7004,-50.000000,-10.000000,0.000000
7005,-40.000000,-10.000000,0.000000
7006,-30.000000,-10.000000,0.000000
7007,-20.000000,-10.000000,0.000000
7011,20.000000,-10.000000,0.000000
7012,30.000000,-10.000000,0.000000
7013,40.000000,-10.000000,0.000000
7014,50.000000,-10.000000,0.000000
7015,60.000000,-10.000000,0.000000
7016,70.000000,-10.000000,0.000000
7017,80.000000,-10.000000,0.000000
8001,-80.000000,0.000000,0.000000
8002,-70.000000,0.000000,0.000000
8003,-60.000000,0.000000,0.000000
8004,-50.000000,0.000000,0.000000
8005,-40.000000,0.000000,0.000000
8006,-30.000000,0.000000,0.000000
8007,-20.000000,0.000000,0.000000
8011,20.000000,0.000000,0.000000
8012,30.000000,0.000000,0.000000
8013,40.000000,0.000000,0.000000
8014,50.000000,0.000000,0.000000
8015,60.000000,0.000000,0.000000
8016,70.000000,0.000000,0.000000
8017,80.000000,0.000000,0.000000
9001,-80.000000,10.000000,0.000000
9002,-70.000000,10.000000,0.000000
9003,-60.000000,10.000000,0.000000
9004,-50.000000,10.000000,0.000000
9005,-40.000000,10.000000,0.000000
9006,-30.000000,10.000000,0.000000
9007,-20.000000,10.000000,0.000000
9011,20.000000,10.000000,0.000000
9012,30.000000,10.000000,0.000000
9013,40.000000,10.000000,0.000000
9014,50.000000,10.000000,0.000000
9015,60.000000,10.000000,0.000000
9016,70.000000,10.000000,0.000000
9017,80.000000,10.000000,0.000000
10001,-80.000000,20.000000,0.000000
10002,-70.000000,20.000000,0.000000
10003,-60.000000,20.000000,0.000000
10004,-50.000000,20.000000,0.000000
10005,-40.000000,20.000000,0.000000
10006,-30.000000,20.000000,0.000000
10007,-20.000000,20.000000,0.000000
10008,-10.000000,20.000000,0.000000
10009,0.000000,20.000000,0.000000
10010,10.000000,20.000000,0.000000
10011,20.000000,20.000000,0.000000
10012,30.000000,20.000000,0.000000
10013,40.000000,20.000000,0.000000
10014,50.000000,20.000000,0.000000
10015,60.000000,20.000000,0.000000
10016,70.000000,20.000000,0.000000
10017,80.000000,20.000000,0.000000
11001,-80.000000,30.000000,0.000000
11002,-70.000000,30.000000,0.000000
11003,-60.000000,30.000000,0.000000
11004,-50.000000,30.000000,0.000000
11005,-40.000000,30.000000,0.000000
11006,-30.000000,30.000000,0.000000
11007,-20.000000,30.000000,0.000000
11008,-10.000000,30.000000,0.000000
11009,0.000000,30.000000,0.000000
11010,10.000000,30.000000,0.000000
11011,20.000000,30.000000,0.000000
11012,30.000000,30.000000,0.000000
11013,40.000000,30.000000,0.000000
11014,50.000000,30.000000,0.000000
11015,60.000000,30.000000,0.000000
11016,70.000000,30.000000,0.000000
11017,80.000000,30.000000,0.000000
12001,-80.000000,40.000000,0.000000
12002,-70.000000,40.000000,0.000000
12003,-60.000000,40.000000,0.000000
12004,-50.000000,40.000000,0.000000
12005,-40.000000,40.000000,0.000000
12006,-30.000000,40.000000,0.000000
12007,-20.000000,40.000000,0.000000
12008,-10.000000,40.000000,0.000000
12009,0.000000,40.000000,0.000000
12010,10.000000,40.000000,0.000000
12011,20.000000,40.000000,0.000000
12012,30.000000,40.000000,0.000000
12013,40.000000,40.000000,0.000000
12014,50.000000,40.000000,0.000000
12015,60.000000,40.000000,0.000000
12016,70.000000,40.000000,0.000000
12017,80.000000,40.000000,0.000000
13001,-80.000000,50.000000,0.000000
13002,-70.000000,50.000000,0.000000
13003,-60.000000,50.000000,0.000000
13004,-50.000000,50.000000,0.000000
13005,-40.000000,50.000000,0.000000
13006,-30.000000,50.000000,0.000000
13007,-20.000000,50.000000,0.000000
13008,-10.000000,50.000000,0.000000
13009,0.000000,50.000000,0.000000
13010,10.000000,50.000000,0.000000
13011,20.000000,50.000000,0.000000
13012,30.000000,50.000000,0.000000
13013,40.000000,50.000000,0.000000
13014,50.000000,50.000000,0.000000
13015,60.000000,50.000000,0.000000
13016,70.000000,50.000000,0.000000
13017,80.000000,50.000000,0.000000
14001,-80.000000,60.000000,0.000000
14002,-70.000000,60.000000,0.000000
14003,-60.000000,60.000000,0.000000
14004,-50.000000,60.000000,0.000000
14005,-40.000000,60.000000,0.000000
14006,-30.000000,60.000000,0.000000
14007,-20.000000,60.000000,0.000000
14008,-10.000000,60.000000,0.000000
14009,0.000000,60.000000,0.000000
14010,10.000000,60.000000,0.000000
14011,20.000000,60.000000,0.000000
14012,30.000000,60.000000,0.000000
14013,40.000000,60.000000,0.000000
14014,50.000000,60.000000,0.000000
14015,60.000000,60.000000,0.000000
14016,70.000000,60.000000,0.000000
14017,80.000000,60.000000,0.000000
15001,-80.000000,70.000000,0.000000
15002,-70.000000,70.000000,0.000000
15003,-60.000000,70.000000,0.000000
15004,-50.000000,70.000000,0.000000
15005,-40.000000,70.000000,0.000000
15006,-30.000000,70.000000,0.000000
15007,-20.000000,70.000000,0.000000
15008,-10.000000,70.000000,0.000000
15009,0.000000,70.000000,0.000000
15010,10.000000,70.000000,0.000000
15011,20.000000,70.000000,0.000000
15012,30.000000,70.000000,0.000000
15013,40.000000,70.000000,0.000000
15014,50.000000,70.000000,0.000000
15015,60.000000,70.000000,0.000000
15016,70.000000,70.000000,0.000000
15017,80.000000,70.000000,0.000000
16001,-80.000000,80.000000,0.000000
16002,-70.000000,80.000000,0.000000
16003,-60.000000,80.000000,0.000000
16004,-50.000000,80.000000,0.000000
16005,-40.000000,80.000000,0.000000
16006,-30.000000,80.000000,0.000000
16007,-20.000000,80.000000,0.000000
16008,-10.000000,80.000000,0.000000
16009,0.000000,80.000000,0.000000
16010,10.000000,80.000000,0.000000
16011,20.000000,80.000000,0.000000
16012,30.000000,80.000000,0.000000
16013,40.000000,80.000000,0.000000
16014,50.000000,80.000000,0.000000
16015,60.000000,80.000000,0.000000
16016,70.000000,80.000000,0.000000
16017,80.000000,80.000000,0.000000
100001,-80.000000,-80.000000,5.375000
100002,-70.000000,-80.000000,5.375000
100003,-60.000000,-80.000000,5.375000
100004,-50.000000,-80.000000,5.375000
100005,-40.000000,-80.000000,5.375000
100006,-30.000000,-80.000000,5.375000
100007,-20.000000,-80.000000,5.375000
100008,-10.000000,-80.000000,5.375000
100009,0.000000,-80.000000,5.375000
100010,10.000000,-80.000000,5.375000
100011,20.000000,-80.000000,5.375000
100012,30.000000,-80.000000,5.375000
100013,40.000000,-80.000000,5.375000
100014,50.000000,-80.000000,5.375000
100015,60.000000,-80.000000,5.375000
100016,70.000000,-80.000000,5.375000
100017,80.000000,-80.000000,5.375000
101001,-80.000000,-70.000000,5.375000
101002,-70.000000,-70.000000,5.375000
101003,-60.000000,-70.000000,5.375000
101004,-50.000000,-70.000000,5.375000
101005,-40.000000,-70.000000,5.375000
101006,-30.000000,-70.000000,5.375000
101007,-20.000000,-70.000000,5.375000
101008,-10.000000,-70.000000,5.375000
101009,0.000000,-70.000000,5.375000
101010,10.000000,-70.000000,5.375000
101011,20.000000,-70.000000,5.375000
101012,30.000000,-70.000000,5.375000
101013,40.000000,-70.000000,5.375000
101014,50.000000,-70.000000,5.375000
101015,60.000000,-70.000000,5.375000
101016,70.000000,-70.000000,5.375000
101017,80.000000,-70.000000,5.375000
102001,-80.000000,-60.000000,5.375000
102002,-70.000000,-60.000000,5.375000
102003,-60.000000,-60.000000,5.375000
102004,-50.000000,-60.000000,5.375000
102005,-40.000000,-60.000000,5.375000
102006,-30.000000,-60.000000,5.375000
102007,-20.000000,-60.000000,5.375000
102008,-10.000000,-60.000000,5.375000
102009,0.000000,-60.000000,5.375000
102010,10.000000,-60.000000,5.375000
102011,20.000000,-60.000000,5.375000
102012,30.000000,-60.000000,5.375000
102013,40.000000,-60.000000,5.375000
102014,50.000000,-60.000000,5.375000
102015,60.000000,-60.000000,5.375000
102016,70.000000,-60.000000,5.375000
102017,80.000000,-60.000000,5.375000
103001,-80.000000,-50.000000,5.375000
103002,-70.000000,-50.000000,5.375000
103003,-60.000000,-50.000000,5.375000
103004,-50.000000,-50.000000,5.375000
103005,-40.000000,-50.000000,5.375000
103006,-30.000000,-50.000000,5.375000
103007,-20.000000,-50.000000,5.375000
103008,-10.000000,-50.000000,5.375000
103009,0.000000,-50.000000,5.375000
103010,10.000000,-50.000000,5.375000
103011,20.000000,-50.000000,5.375000
103012,30.000000,-50.000000,5.375000
103013,40.000000,-50.000000,5.375000
103014,50.000000,-50.000000,5.375000
103015,60.000000,-50.000000,5.375000
103016,70.000000,-50.000000,5.375000
103017,80.000000,-50.000000,5.375000
104001,-80.000000,-40.000000,5.375000
104002,-70.000000,-40.000000,5.375000
104003,-60.000000,-40.000000,5.375000
104004,-50.000000,-40.000000,5.375000
104005,-40.000000,-40.000000,5.375000
104006,-30.000000,-40.000000,5.375000
104007,-20.000000,-40.000000,5.375000
104008,-10.000000,-40.000000,5.375000
104009,0.000000,-40.000000,5.375000
104010,10.000000,-40.000000,5.375000
104011,20.000000,-40.000000,5.375000
104012,30.000000,-40.000000,5.375000
104013,40.000000,-40.000000,5.375000
104014,50.000000,-40.000000,5.375000
104015,60.000000,-40.000000,5.375000
104016,70.000000,-40.000000,5.375000
104017,80.000000,-40.000000,5.375000
105001,-80.000000,-30.000000,5.375000
105002,-70.000000,-30.000000,5.375000
105003,-60.000000,-30.000000,5.375000
105004,-50.000000,-30.000000,5.375000
105005,-40.000000,-30.000000,5.375000
105006,-30.000000,-30.000000,5.375000
105007,-20.000000,-30.000000,5.375000
105008,-10.000000,-30.000000,5.375000
105009,0.000000,-30.000000,5.375000
105010,10.000000,-30.000000,5.375000
105011,20.000000,-30.000000,5.375000
105012,30.000000,-30.000000,5.375000
105013,40.000000,-30.000000,5.375000
105014,50.000000,-30.000000,5.375000
105015,60.000000,-30.000000,5.375000
105016,70.000000,-30.000000,5.375000
105017,80.000000,-30.000000,5.375000
106001,-80.000000,-20.000000,5.375000
106002,-70.000000,-20.000000,5.375000
106003,-60.000000,-20.000000,5.375000
106004,-50.000000,-20.000000,5.375000
106005,-40.000000,-20.000000,5.375000
106006,-30.000000,-20.000000,5.375000
106007,-20.000000,-20.000000,5.375000
106008,-10.000000,-20.000000,5.375000
106009,0.000000,-20.000000,5.375000
106010,10.000000,-20.000000,5.375000
106011,20.000000,-20.000000,5.375000
106012,30.000000,-20.000000,5.375000
106013,40.000000,-20.000000,5.375000
106014,50.000000,-20.000000,5.375000
106015,60.000000,-20.000000,5.375000
106016,70.000000,-20.000000,5.375000
106017,80.000000,-20.000000,5.375000
107001,-80.000000,-10.000000,5.375000
107002,-70.000000,-10.000000,5.375000
107003,-60.000000,-10.000000,5.375000
107004,-50.000000,-10.000000,5.375000
107005,-40.000000,-10.000000,5.375000
107006,-30.000000,-10.000000,5.375000
107007,-20.000000,-10.000000,5.375000
107011,20.000000,-10.000000,5.375000
107012,30.000000,-10.000000,5.375000
107013,40.000000,-10.000000,5.375000
107014,50.000000,-10.000000,5.375000
107015,60.000000,-10.000000,5.375000
107016,70.000000,-10.000000,5.375000
107017,80.000000,-10.000000,5.375000
108001,-80.000000,0.000000,5.375000
108002,-70.000000,0.000000,5.375000
108003,-60.000000,0.000000,5.375000
108004,-50.000000,0.000000,5.375000
108005,-40.000000,0.000000,5.375000
108006,-30.000000,0.000000,5.375000
108007,-20.000000,0.000000,5.375000
108011,20.000000,0.000000,5.375000
108012,30.000000,0.000000,5.375000
108013,40.000000,0.000000,5.375000
108014,50.000000,0.000000,5.375000
108015,60.000000,0.000000,5.375000
108016,70.000000,0.000000,5.375000
108017,80.000000,0.000000,5.375000
109001,-80.000000,10.000000,5.375000
109002,-70.000000,10.000000,5.375000
109003,-60.000000,10.000000,5.375000
109004,-50.000000,10.000000,5.375000
109005,-40.000000,10.000000,5.375000
109006,-30.000000,10.000000,5.375000
109007,-20.000000,10.000000,5.375000
109011,20.000000,10.000000,5.375000
109012,30.000000,10.000000,5.375000
109013,40.000000,10.000000,5.375000
109014,50.000000,10.000000,5.375000
109015,60.000000,10.000000,5.375000
109016,70.000000,10.000000,5.375000
109017,80.000000,10.000000,5.375000
110001,-80.000000,20.000000,5.375000
110002,-70.000000,20.000000,5.375000
110003,-60.000000,20.000000,5.375000
110004,-50.000000,20.000000,5.375000
110005,-40.000000,20.000000,5.375000
110006,-30.000000,20.000000,5.375000
110007,-20.000000,20.000000,5.375000
110008,-10.000000,20.000000,5.375000
110009,0.000000,20.000000,5.375000
110010,10.000000,20.000000,5.375000
110011,20.000000,20.000000,5.375000
110012,30.000000,20.000000,5.375000
110013,40.000000,20.000000,5.375000
110014,50.000000,20.000000,5.375000
110015,60.000000,20.000000,5.375000
110016,70.000000,20.000000,5.375000
110017,80.000000,20.000000,5.375000
111001,-80.000000,30.000000,5.375000
111002,-70.000000,30.000000,5.375000
111003,-60.000000,30.000000,5.375000
111004,-50.000000,30.000000,5.375000
111005,-40.000000,30.000000,5.375000
111006,-30.000000,30.000000,5.375000
111007,-20.000000,30.000000,5.375000
111008,-10.000000,30.000000,5.375000
111009,0.000000,30.000000,5.375000
111010,10.000000,30.000000,5.375000
111011,20.000000,30.000000,5.375000
111012,30.000000,30.000000,5.375000
111013,40.000000,30.000000,5.375000
111014,50.000000,30.000000,5.375000
111015,60.000000,30.000000,5.375000
111016,70.000000,30.000000,5.375000
111017,80.000000,30.000000,5.375000
112001,-80.000000,40.000000,5.375000
112002,-70.000000,40.000000,5.375000
112003,-60.000000,40.000000,5.375000
112004,-50.000000,40.000000,5.375000
112005,-40.000000,40.000000,5.375000
112006,-30.000000,40.000000,5.375000
112007,-20.000000,40.000000,5.375000
112008,-10.000000,40.000000,5.375000
112009,0.000000,40.000000,5.375000
112010,10.000000,40.000000,5.375000
112011,20.000000,40.000000,5.375000
112012,30.000000,40.000000,5.375000
112013,40.000000,40.000000,5.375000
112014,50.000000,40.000000,5.375000
112015,60.000000,40.000000,5.375000
112016,70.000000,40.000000,5.375000
112017,80.000000,40.000000,5.375000
113001,-80.000000,50.000000,5.375000
113002,-70.000000,50.000000,5.375000
113003,-60.000000,50.000000,5.375000
113004,-50.000000,50.000000,5.375000
113005,-40.000000,50.000000,5.375000
113006,-30.000000,50.000000,5.375000
113007,-20.000000,50.000000,5.375000
113008,-10.000000,50.000000,5.375000
113009,0.000000,50.000000,5.375000
113010,10.000000,50.000000,5.375000
113011,20.000000,50.000000,5.375000
113012,30.000000,50.000000,5.375000
113013,40.000000,50.000000,5.375000
113014,50.000000,50.000000,5.375000
113015,60.000000,50.000000,5.375000
113016,70.000000,50.000000,5.375000
113017,80.000000,50.000000,5.375000
114001,-80.000000,60.000000,5.375000
114002,-70.000000,60.000000,5.375000
114003,-60.000000,60.000000,5.375000
114004,-50.000000,60.000000,5.375000
114005,-40.000000,60.000000,5.375000
114006,-30.000000,60.000000,5.375000
114007,-20.000000,60.000000,5.375000
114008,-10.000000,60.000000,5.375000
114009,0.000000,60.000000,5.375000
114010,10.000000,60.000000,5.375000
114011,20.000000,60.000000,5.375000
114012,30.000000,60.000000,5.375000
114013,40.000000,60.000000,5.375000
114014,50.000000,60.000000,5.375000
114015,60.000000,60.000000,5.375000
114016,70.000000,60.000000,5.375000
114017,80.000000,60.000000,5.375000
115001,-80.000000,70.000000,5.375000
115002,-70.000000,70.000000,5.375000
115003,-60.000000,70.000000,5.375000
115004,-50.000000,70.000000,5.375000
115005,-40.000000,70.000000,5.375000
115006,-30.000000,70.000000,5.375000
115007,-20.000000,70.000000,5.375000
115008,-10.000000,70.000000,5.375000
115009,0.000000,70.000000,5.375000
115010,10.000000,70.000000,5.375000
115011,20.000000,70.000000,5.375000
115012,30.000000,70.000000,5.375000
115013,40.000000,70.000000,5.375000
115014,50.000000,70.000000,5.375000
115015,60.000000,70.000000,5.375000
115016,70.000000,70.000000,5.375000
115017,80.000000,70.000000,5.375000
116001,-80.000000,80.000000,5.375000
116002,-70.000000,80.000000,5.375000
116003,-60.000000,80.000000,5.375000
116004,-50.000000,80.000000,5.375000
116005,-40.000000,80.000000,5.375000
116006,-30.000000,80.000000,5.375000
116007,-20.000000,80.000000,5.375000
116008,-10.000000,80.000000,5.375000
116009,0.000000,80.000000,5.375000
116010,10.000000,80.000000,5.375000
116011,20.000000,80.000000,5.375000
116012,30.000000,80.000000,5.375000
116013,40.000000,80.000000,5.375000
116014,50.000000,80.000000,5.375000
116015,60.000000,80.000000,5.375000
116016,70.000000,80.000000,5.375000
116017,80.000000,80.000000,5.375000
200001,-80.000000,-80.000000,10.750000
200002,-70.000000,-80.000000,10.750000
200003,-60.000000,-80.000000,10.750000
200004,-50.000000,-80.000000,10.750000
200005,-40.000000,-80.000000,10.750000
200006,-30.000000,-80.000000,10.750000
200007,-20.000000,-80.000000,10.750000
200008,-10.000000,-80.000000,10.750000
200009,0.000000,-80.000000,10.750000
200010,10.000000,-80.000000,10.750000
200011,20.000000,-80.000000,10.750000
200012,30.000000,-80.000000,10.750000
200013,40.000000,-80.000000,10.750000
200014,50.000000,-80.000000,10.750000
200015,60.000000,-80.000000,10.750000
200016,70.000000,-80.000000,10.750000
200017,80.000000,-80.000000,10.750000
201001,-80.000000,-70.000000,10.750000
201002,-70.000000,-70.000000,10.750000
201003,-60.000000,-70.000000,10.750000
201004,-50.000000,-70.000000,10.750000
201005,-40.000000,-70.000000,10.750000
201006,-30.000000,-70.000000,10.750000
201007,-20.000000,-70.000000,10.750000
201008,-10.000000,-70.000000,10.750000
201009,0.000000,-70.000000,10.750000
201010,10.000000,-70.000000,10.750000
201011,20.000000,-70.000000,10.750000
201012,30.000000,-70.000000,10.750000
201013,40.000000,-70.000000,10.750000
201014,50.000000,-70.000000,10.750000
201015,60.000000,-70.000000,10.750000
201016,70.000000,-70.000000,10.750000
201017,80.000000,-70.000000,10.750000
202001,-80.000000,-60.000000,10.750000
202002,-70.000000,-60.000000,10.750000
202003,-60.000000,-60.000000,10.750000
202004,-50.000000,-60.000000,10.750000
202005,-40.000000,-60.000000,10.750000
202006,-30.000000,-60.000000,10.750000
202007,-20.000000,-60.000000,10.750000
202008,-10.000000,-60.000000,10.750000
202009,0.000000,-60.000000,10.750000
202010,10.000000,-60.000000,10.750000
202011,20.000000,-60.000000,10.750000
202012,30.000000,-60.000000,10.750000
202013,40.000000,-60.000000,10.750000
202014,50.000000,-60.000000,10.750000
202015,60.000000,-60.000000,10.750000
202016,70.000000,-60.000000,10.750000
202017,80.000000,-60.000000,10.750000
203001,-80.000000,-50.000000,10.750000
203002,-70.000000,-50.000000,10.750000
203003,-60.000000,-50.000000,10.750000
203004,-50.000000,-50.000000,10.750000
203005,-40.000000,-50.000000,10.750000
203006,-30.000000,-50.000000,10.750000
203007,-20.000000,-50.000000,10.750000
203008,-10.000000,-50.000000,10.750000
203009,0.000000,-50.000000,10.750000
203010,10.000000,-50.000000,10.750000
203011,20.000000,-50.000000,10.750000
203012,30.000000,-50.000000,10.750000
203013,40.000000,-50.000000,10.750000
203014,50.000000,-50.000000,10.750000
203015,60.000000,-50.000000,10.750000
203016,70.000000,-50.000000,10.750000
203017,80.000000,-50.000000,10.750000
204001,-80.000000,-40.000000,10.750000
204002,-70.000000,-40.000000,10.750000
204003,-60.000000,-40.000000,10.750000
204004,-50.000000,-40.000000,10.750000
204005,-40.000000,-40.000000,10.750000
204006,-30.000000,-40.000000,10.750000
204007,-20.000000,-40.000000,10.750000
204008,-10.000000,-40.000000,10.750000
204009,0.000000,-40.000000,10.750000
204010,10.000000,-40.000000,10.750000
204011,20.000000,-40.000000,10.750000
204012,30.000000,-40.000000,10.750000
204013,40.000000,-40.000000,10.750000
204014,50.000000,-40.000000,10.750000
204015,60.000000,-40.000000,10.750000
204016,70.000000,-40.000000,10.750000
204017,80.000000,-40.000000,10.750000
205001,-80.000000,-30.000000,10.750000
205002,-70.000000,-30.000000,10.750000
205003,-60.000000,-30.000000,10.750000
205004,-50.000000,-30.000000,10.750000
205005,-40.000000,-30.000000,10.750000
205006,-30.000000,-30.000000,10.750000
205007,-20.000000,-30.000000,10.750000
205008,-10.000000,-30.000000,10.750000
205009,0.000000,-30.000000,10.750000
205010,10.000000,-30.000000,10.750000
205011,20.000000,-30.000000,10.750000
205012,30.000000,-30.000000,10.750000
205013,40.000000,-30.000000,10.750000
205014,50.000000,-30.000000,10.750000
205015,60.000000,-30.000000,10.750000
205016,70.000000,-30.000000,10.750000
205017,80.000000,-30.000000,10.750000
206001,-80.000000,-20.000000,10.750000
206002,-70.000000,-20.000000,10.750000
206003,-60.000000,-20.000000,10.750000
206004,-50.000000,-20.000000,10.750000
206005,-40.000000,-20.000000,10.750000
206006,-30.000000,-20.000000,10.750000
206007,-20.000000,-20.000000,10.750000
206008,-10.000000,-20.000000,10.750000
206009,0.000000,-20.000000,10.750000
206010,10.000000,-20.000000,10.750000
206011,20.000000,-20.000000,10.750000
206012,30.000000,-20.000000,10.750000
206013,40.000000,-20.000000,10.750000
206014,50.000000,-20.000000,10.750000
206015,60.000000,-20.000000,10.750000
206016,70.000000,-20.000000,10.750000
206017,80.000000,-20.000000,10.750000
207001,-80.000000,-10.000000,10.750000
207002,-70.000000,-10.000000,10.750000
207003,-60.000000,-10.000000,10.750000
207004,-50.000000,-10.000000,10.750000
207005,-40.000000,-10.000000,10.750000
207006,-30.000000,-10.000000,10.750000
207007,-20.000000,-10.000000,10.750000
207011,20.000000,-10.000000,10.750000
207012,30.000000,-10.000000,10.750000
207013,40.000000,-10.000000,10.750000
207014,50.000000,-10.000000,10.750000
207015,60.000000,-10.000000,10.750000
207016,70.000000,-10.000000,10.750000
207017,80.000000,-10.000000,10.750000
208001,-80.000000,0.000000,10.750000
208002,-70.000000,0.000000,10.750000
208003,-60.000000,0.000000,10.750000
208004,-50.000000,0.000000,10.750000
208005,-40.000000,0.000000,10.750000
208006,-30.000000,0.000000,10.750000
208007,-20.000000,0.000000,10.750000
208011,20.000000,0.000000,10.750000
208012,30.000000,0.000000,10.750000
208013,40.000000,0.000000,10.750000
208014,50.000000,0.000000,10.750000
208015,60.000000,0.000000,10.750000
208016,70.000000,0.000000,10.750000
208017,80.000000,0.000000,10.750000
209001,-80.000000,10.000000,10.750000
209002,-70.000000,10.000000,10.750000
209003,-60.000000,10.000000,10.750000
209004,-50.000000,10.000000,10.750000
209005,-40.000000,10.000000,10.750000
209006,-30.000000,10.000000,10.750000
209007,-20.000000,10.000000,10.750000
209011,20.000000,10.000000,10.750000
209012,30.000000,10.000000,10.750000
209013,40.000000,10.000000,10.750000
209014,50.000000,10.000000,10.750000
209015,60.000000,10.000000,10.750000
209016,70.000000,10.000000,10.750000
209017,80.000000,10.000000,10.750000
210001,-80.000000,20.000000,10.750000
210002,-70.000000,20.000000,10.750000
210003,-60.000000,20.000000,10.750000
210004,-50.000000,20.000000,10.750000
210005,-40.000000,20.000000,10.750000
210006,-30.000000,20.000000,10.750000
210007,-20.000000,20.000000,10.750000
210008,-10.000000,20.000000,10.750000
210009,0.000000,20.000000,10.750000
210010,10.000000,20.000000,10.750000
210011,20.000000,20.000000,10.750000
210012,30.000000,20.000000,10.750000
210013,40.000000,20.000000,10.750000
210014,50.000000,20.000000,10.750000
210015,60.000000,20.000000,10.750000
210016,70.000000,20.000000,10.750000
210017,80.000000,20.000000,10.750000
211001,-80.000000,30.000000,10.750000
211002,-70.000000,30.000000,10.750000
211003,-60.000000,30.000000,10.750000
211004,-50.000000,30.000000,10.750000
211005,-40.000000,30.000000,10.750000
211006,-30.000000,30.000000,10.750000
211007,-20.000000,30.000000,10.750000
211008,-10.000000,30.000000,10.750000
211009,0.000000,30.000000,10.750000
211010,10.000000,30.000000,10.750000
211011,20.000000,30.000000,10.750000
211012,30.000000,30.000000,10.750000
211013,40.000000,30.000000,10.750000
211014,50.000000,30.000000,10.750000
211015,60.000000,30.000000,10.750000
211016,70.000000,30.000000,10.750000
211017,80.000000,30.000000,10.750000
212001,-80.000000,40.000000,10.750000
212002,-70.000000,40.000000,10.750000
212003,-60.000000,40.000000,10.750000
212004,-50.000000,40.000000,10.750000
212005,-40.000000,40.000000,10.750000
212006,-30.000000,40.000000,10.750000
212007,-20.000000,40.000000,10.750000
212008,-10.000000,40.000000,10.750000
212009,0.000000,40.000000,10.750000
212010,10.000000,40.000000,10.750000
212011,20.000000,40.000000,10.750000
212012,30.000000,40.000000,10.750000
212013,40.000000,40.000000,10.750000
212014,50.000000,40.000000,10.750000
212015,60.000000,40.000000,10.750000
212016,70.000000,40.000000,10.750000
212017,80.000000,40.000000,10.750000
213001,-80.000000,50.000000,10.750000
213002,-70.000000,50.000000,10.750000
213003,-60.000000,50.000000,10.750000
213004,-50.000000,50.000000,10.750000
213005,-40.000000,50.000000,10.750000
213006,-30.000000,50.000000,10.750000
213007,-20.000000,50.000000,10.750000
213008,-10.000000,50.000000,10.750000
213009,0.000000,50.000000,10.750000
213010,10.000000,50.000000,10.750000
213011,20.000000,50.000000,10.750000
213012,30.000000,50.000000,10.750000
213013,40.000000,50.000000,10.750000
213014,50.000000,50.000000,10.750000
213015,60.000000,50.000000,10.750000
213016,70.000000,50.000000,10.750000
213017,80.000000,50.000000,10.750000
214001,-80.000000,60.000000,10.750000
214002,-70.000000,60.000000,10.750000
214003,-60.000000,60.000000,10.750000
214004,-50.000000,60.000000,10.750000
214005,-40.000000,60.000000,10.750000
214006,-30.000000,60.000000,10.750000
214007,-20.000000,60.000000,10.750000
214008,-10.000000,60.000000,10.750000
214009,0.000000,60.000000,10.750000
214010,10.000000,60.000000,10.750000
214011,20.000000,60.000000,10.750000
214012,30.000000,60.000000,10.750000
214013,40.000000,60.000000,10.750000
214014,50.000000,60.000000,10.750000
214015,60.000000,60.000000,10.750000
214016,70.000000,60.000000,10.750000
214017,80.000000,60.000000,10.750000
215001,-80.000000,70.000000,10.750000
215002,-70.000000,70.000000,10.750000
215003,-60.000000,70.000000,10.750000
215004,-50.000000,70.000000,10.750000
215005,-40.000000,70.000000,10.750000
215006,-30.000000,70.000000,10.750000
215007,-20.000000,70.000000,10.750000
215008,-10.000000,70.000000,10.750000
215009,0.000000,70.000000,10.750000
215010,10.000000,70.000000,10.750000
215011,20.000000,70.000000,10.750000
215012,30.000000,70.000000,10.750000
215013,40.000000,70.000000,10.750000
215014,50.000000,70.000000,10.750000
215015,60.000000,70.000000,10.750000
215016,70.000000,70.000000,10.750000
215017,80.000000,70.000000,10.750000
216001,-80.000000,80.000000,10.750000
216002,-70.000000,80.000000,10.750000
216003,-60.000000,80.000000,10.750000
216004,-50.000000,80.000000,10.750000
216005,-40.000000,80.000000,10.750000
216006,-30.000000,80.000000,10.750000
216007,-20.000000,80.000000,10.750000
216008,-10.000000,80.000000,10.750000
216009,0.000000,80.000000,10.750000
216010,10.000000,80.000000,10.750000
216011,20.000000,80.000000,10.750000
216012,30.000000,80.000000,10.750000
216013,40.000000,80.000000,10.750000
216014,50.000000,80.000000,10.750000
216015,60.000000,80.000000,10.750000
216016,70.000000,80.000000,10.750000
216017,80.000000,80.000000,10.750000
300001,-80.000000,-80.000000,10.750000
300002,-70.000000,-80.000000,10.750000
300003,-60.000000,-80.000000,10.750000
300004,-50.000000,-80.000000,10.750000
300005,-40.000000,-80.000000,10.750000
300006,-30.000000,-80.000000,10.750000
300007,-20.000000,-80.000000,10.750000
300008,-10.000000,-80.000000,10.750000
300009,0.000000,-80.000000,10.750000
300010,10.000000,-80.000000,10.750000
300011,20.000000,-80.000000,10.750000
300012,30.000000,-80.000000,10.750000
300013,40.000000,-80.000000,10.750000
300014,50.000000,-80.000000,10.750000
300015,60.000000,-80.000000,10.750000
300016,70.000000,-80.000000,10.750000
300017,80.000000,-80.000000,10.750000
301001,-80.000000,-70.000000,10.750000
301002,-70.000000,-70.000000,10.750000
301003,-60.000000,-70.000000,10.750000
301004,-50.000000,-70.000000,10.750000
301005,-40.000000,-70.000000,10.750000
301006,-30.000000,-70.000000,10.750000
301007,-20.000000,-70.000000,10.750000
301008,-10.000000,-70.000000,10.750000
301009,0.000000,-70.000000,10.750000
301010,10.000000,-70.000000,10.750000
301011,20.000000,-70.000000,10.750000
301012,30.000000,-70.000000,10.750000
301013,40.000000,-70.000000,10.750000
301014,50.000000,-70.000000,10.750000
301015,60.000000,-70.000000,10.750000
301016,70.000000,-70.000000,10.750000
301017,80.000000,-70.000000,10.750000
302001,-80.000000,-60.000000,10.750000
302002,-70.000000,-60.000000,10.750000
302003,-60.000000,-60.000000,10.750000
302004,-50.000000,-60.000000,10.750000
302005,-40.000000,-60.000000,10.750000
302006,-30.000000,-60.000000,10.750000
302007,-20.000000,-60.000000,10.750000
302008,-10.000000,-60.000000,10.750000
302009,0.000000,-60.000000,10.750000
302010,10.000000,-60.000000,10.750000
302011,20.000000,-60.000000,10.750000
302012,30.000000,-60.000000,10.750000
302013,40.000000,-60.000000,10.750000
302014,50.000000,-60.000000,10.750000
302015,60.000000,-60.000000,10.750000
302016,70.000000,-60.000000,10.750000
302017,80.000000,-60.000000,10.750000
303001,-80.000000,-50.000000,10.750000
303002,-70.000000,-50.000000,10.750000
303003,-60.000000,-50.000000,10.750000
303004,-50.000000,-50.000000,10.750000
303005,-40.000000,-50.000000,10.750000
303006,-30.000000,-50.000000,10.750000
303007,-20.000000,-50.000000,10.750000
303008,-10.000000,-50.000000,10.750000
303009,0.000000,-50.000000,10.750000
303010,10.000000,-50.000000,10.750000
303011,20.000000,-50.000000,10.750000
303012,30.000000,-50.000000,10.750000
303013,40.000000,-50.000000,10.750000
303014,50.000000,-50.000000,10.750000
303015,60.000000,-50.000000,10.750000
303016,70.000000,-50.000000,10.750000
303017,80.000000,-50.000000,10.750000
304001,-80.000000,-40.000000,10.750000
304002,-70.000000,-40.000000,10.750000
304003,-60.000000,-40.000000,10.750000
304004,-50.000000,-40.000000,10.750000
304005,-40.000000,-40.000000,10.750000
304006,-30.000000,-40.000000,10.750000
304012,30.000000,-40.000000,10.750000
304013,40.000000,-40.000000,10.750000
304014,50.000000,-40.000000,10.750000
304015,60.000000,-40.000000,10.750000
304016,70.000000,-40.000000,10.750000
304017,80.000000,-40.000000,10.750000
305001,-80.000000,-30.000000,10.750000
305002,-70.000000,-30.000000,10.750000
305003,-60.000000,-30.000000,10.750000
305004,-50.000000,-30.000000,10.750000
305005,-40.000000,-30.000000,10.750000
305013,40.000000,-30.000000,10.750000
305014,50.000000,-30.000000,10.750000
305015,60.000000,-30.000000,10.750000
305016,70.000000,-30.000000,10.750000
305017,80.000000,-30.000000,10.750000
306001,-80.000000,-20.000000,10.750000
306002,-70.000000,-20.000000,10.750000
306003,-60.000000,-20.000000,10.750000
306004,-50.000000,-20.000000,10.750000
306014,50.000000,-20.000000,10.750000
306015,60.000000,-20.000000,10.750000
306016,70.000000,-20.000000,10.750000
306017,80.000000,-20.000000,10.750000
307001,-80.000000,-10.000000,10.750000
307002,-70.000000,-10.000000,10.750000
307003,-60.000000,-10.000000,10.750000
307004,-50.000000,-10.000000,10.750000
307014,50.000000,-10.000000,10.750000
307015,60.000000,-10.000000,10.750000
307016,70.000000,-10.000000,10.750000
307017,80.000000,-10.000000,10.750000
308001,-80.000000,0.000000,10.750000
308002,-70.000000,0.000000,10.750000
308003,-60.000000,0.000000,10.750000
308004,-50.000000,0.000000,10.750000
308014,50.000000,0.000000,10.750000
308015,60.000000,0.000000,10.750000
308016,70.000000,0.000000,10.750000
308017,80.000000,0.000000,10.750000
309001,-80.000000,10.000000,10.750000
309002,-70.000000,10.000000,10.750000
309003,-60.000000,10.000000,10.750000
309004,-50.000000,10.000000,10.750000
309014,50.000000,10.000000,10.750000
309015,60.000000,10.000000,10.750000
309016,70.000000,10.000000,10.750000
309017,80.000000,10.000000,10.750000
310001,-80.000000,20.000000,10.750000
310002,-70.000000,20.000000,10.750000
310003,-60.000000,20.000000,10.750000
310004,-50.000000,20.000000,10.750000
310014,50.000000,20.000000,10.750000
310015,60.000000,20.000000,10.750000
310016,70.000000,20.000000,10.750000
310017,80.000000,20.000000,10.750000
311001,-80.000000,30.000000,10.750000
311002,-70.000000,30.000000,10.750000
311003,-60.000000,30.000000,10.750000
311004,-50.000000,30.000000,10.750000
311005,-40.000000,30.000000,10.750000
311013,40.000000,30.000000,10.750000
311014,50.000000,30.000000,10.750000
311015,60.000000,30.000000,10.750000
311016,70.000000,30.000000,10.750000
311017,80.000000,30.000000,10.750000
312001,-80.000000,40.000000,10.750000
312002,-70.000000,40.000000,10.750000
312003,-60.000000,40.000000,10.750000
312004,-50.000000,40.000000,10.750000
312005,-40.000000,40.000000,10.750000
312006,-30.000000,40.000000,10.750000
312012,30.000000,40.000000,10.750000
312013,40.000000,40.000000,10.750000
312014,50.000000,40.000000,10.750000
312015,60.000000,40.000000,10.750000
312016,70.000000,40.000000,10.750000
312017,80.000000,40.000000,10.750000
313001,-80.000000,50.000000,10.750000
313002,-70.000000,50.000000,10.750000
313003,-60.000000,50.000000,10.750000
313004,-50.000000,50.000000,10.750000
313005,-40.000000,50.000000,10.750000
313006,-30.000000,50.000000,10.750000
313007,-20.000000,50.000000,10.750000
313008,-10.000000,50.000000,10.750000
313009,0.000000,50.000000,10.750000
313010,10.000000,50.000000,10.750000
313011,20.000000,50.000000,10.750000
313012,30.000000,50.000000,10.750000
313013,40.000000,50.000000,10.750000
313014,50.000000,50.000000,10.750000
313015,60.000000,50.000000,10.750000
313016,70.000000,50.000000,10.750000
313017,80.000000,50.000000,10.750000
314001,-80.000000,60.000000,10.750000
314002,-70.000000,60.000000,10.750000
314003,-60.000000,60.000000,10.750000
314004,-50.000000,60.000000,10.750000
314005,-40.000000,60.000000,10.750000
314006,-30.000000,60.000000,10.750000
314007,-20.000000,60.000000,10.750000
314008,-10.000000,60.000000,10.750000
314009,0.000000,60.000000,10.750000
314010,10.000000,60.000000,10.750000
314011,20.000000,60.000000,10.750000
314012,30.000000,60.000000,10.750000
314013,40.000000,60.000000,10.750000
314014,50.000000,60.000000,10.750000
314015,60.000000,60.000000,10.750000
314016,70.000000,60.000000,10.750000
314017,80.000000,60.000000,10.750000
315001,-80.000000,70.000000,10.750000
315002,-70.000000,70.000000,10.750000
315003,-60.000000,70.000000,10.750000
315004,-50.000000,70.000000,10.750000
315005,-40.000000,70.000000,10.750000
315006,-30.000000,70.000000,10.750000
315007,-20.000000,70.000000,10.750000
315008,-10.000000,70.000000,10.750000
315009,0.000000,70.000000,10.750000
315010,10.000000,70.000000,10.750000
315011,20.000000,70.000000,10.750000
315012,30.000000,70.000000,10.750000
315013,40.000000,70.000000,10.750000
315014,50.000000,70.000000,10.750000
315015,60.000000,70.000000,10.750000
315016,70.000000,70.000000,10.750000
315017,80.000000,70.000000,10.750000
316001,-80.000000,80.000000,10.750000
316002,-70.000000,80.000000,10.750000
316003,-60.000000,80.000000,10.750000
316004,-50.000000,80.000000,10.750000
316005,-40.000000,80.000000,10.750000
316006,-30.000000,80.000000,10.750000
316007,-20.000000,80.000000,10.750000
316008,-10.000000,80.000000,10.750000
316009,0.000000,80.000000,10.750000
316010,10.000000,80.000000,10.750000
316011,20.000000,80.000000,10.750000
316012,30.000000,80.000000,10.750000
316013,40.000000,80.000000,10.750000
316014,50.000000,80.000000,10.750000
316015,60.000000,80.000000,10.750000
316016,70.000000,80.000000,10.750000
316017,80.000000,80.000000,10.750000
400001,-80.000000,-80.000000,14.750000
400002,-70.000000,-80.000000,14.750000
400003,-60.000000,-80.000000,14.750000
400004,-50.000000,-80.000000,14.750000
400005,-40.000000,-80.000000,14.750000
400006,-30.000000,-80.000000,14.750000
400007,-20.000000,-80.000000,14.750000
400008,-10.000000,-80.000000,14.750000
400009,0.000000,-80.000000,14.750000
400010,10.000000,-80.000000,14.750000
400011,20.000000,-80.000000,14.750000
400012,30.000000,-80.000000,14.750000
400013,40.000000,-80.000000,14.750000
400014,50.000000,-80.000000,14.750000
400015,60.000000,-80.000000,14.750000
400016,70.000000,-80.000000,14.750000
400017,80.000000,-80.000000,14.750000
401001,-80.000000,-70.000000,14.750000
401002,-70.000000,-70.000000,14.750000
401003,-60.000000,-70.000000,14.750000
401004,-50.000000,-70.000000,14.750000
401005,-40.000000,-70.000000,14.750000
401006,-30.000000,-70.000000,14.750000
401007,-20.000000,-70.000000,14.750000
401008,-10.000000,-70.000000,14.750000
401009,0.000000,-70.000000,14.750000
401010,10.000000,-70.000000,14.750000
401011,20.000000,-70.000000,14.750000
401012,30.000000,-70.000000,14.750000
401013,40.000000,-70.000000,14.750000
401014,50.000000,-70.000000,14.750000
401015,60.000000,-70.000000,14.750000
401016,70.000000,-70.000000,14.750000
401017,80.000000,-70.000000,14.750000
402001,-80.000000,-60.000000,14.750000
402002,-70.000000,-60.000000,14.750000
402003,-60.000000,-60.000000,14.750000
402004,-50.000000,-60.000000,14.750000
402005,-40.000000,-60.000000,14.750000
402006,-30.000000,-60.000000,14.750000
402007,-20.000000,-60.000000,14.750000
402008,-10.000000,-60.000000,14.750000
402009,0.000000,-60.000000,14.750000
402010,10.000000,-60.000000,14.750000
402011,20.000000,-60.000000,14.750000
402012,30.000000,-60.000000,14.750000
402013,40.000000,-60.000000,14.750000
402014,50.000000,-60.000000,14.750000
402015,60.000000,-60.000000,14.750000
402016,70.000000,-60.000000,14.750000
402017,80.000000,-60.000000,14.750000
403001,-80.000000,-50.000000,14.750000
403002,-70.000000,-50.000000,14.750000
403003,-60.000000,-50.000000,14.750000
403004,-50.000000,-50.000000,14.750000
403005,-40.000000,-50.000000,14.750000
403006,-30.000000,-50.000000,14.750000
403007,-20.000000,-50.000000,14.750000
403008,-10.000000,-50.000000,14.750000
403009,0.000000,-50.000000,14.750000
403010,10.000000,-50.000000,14.750000
403011,20.000000,-50.000000,14.750000
403012,30.000000,-50.000000,14.750000
403013,40.000000,-50.000000,14.750000
403014,50.000000,-50.000000,14.750000
403015,60.000000,-50.000000,14.750000
403016,70.000000,-50.000000,14.750000
403017,80.000000,-50.000000,14.750000
404001,-80.000000,-40.000000,14.750000
404002,-70.000000,-40.000000,14.750000
404003,-60.000000,-40.000000,14.750000
404004,-50.000000,-40.000000,14.750000
404005,-40.000000,-40.000000,14.750000
404006,-30.000000,-40.000000,14.750000
404012,30.000000,-40.000000,14.750000
404013,40.000000,-40.000000,14.750000
404014,50.000000,-40.000000,14.750000
404015,60.000000,-40.000000,14.750000
404016,70.000000,-40.000000,14.750000
404017,80.000000,-40.000000,14.750000
405001,-80.000000,-30.000000,14.750000
405002,-70.000000,-30.000000,14.750000
405003,-60.000000,-30.000000,14.750000
405004,-50.000000,-30.000000,14.750000
405005,-40.000000,-30.000000,14.750000
405013,40.000000,-30.000000,14.750000
405014,50.000000,-30.000000,14.750000
405015,60.000000,-30.000000,14.750000
405016,70.000000,-30.000000,14.750000
405017,80.000000,-30.000000,14.750000
406001,-80.000000,-20.000000,14.750000
406002,-70.000000,-20.000000,14.750000
406003,-60.000000,-20.000000,14.750000
406004,-50.000000,-20.000000,14.750000
406014,50.000000,-20.000000,14.750000
406015,60.000000,-20.000000,14.750000
406016,70.000000,-20.000000,14.750000
406017,80.000000,-20.000000,14.750000
407001,-80.000000,-10.000000,14.750000
407002,-70.000000,-10.000000,14.750000
407003,-60.000000,-10.000000,14.750000
407004,-50.000000,-10.000000,14.750000
407014,50.000000,-10.000000,14.750000
407015,60.000000,-10.000000,14.750000
407016,70.000000,-10.000000,14.750000
407017,80.000000,-10.000000,14.750000
408001,-80.000000,0.000000,14.750000
408002,-70.000000,0.000000,14.750000
408003,-60.000000,0.000000,14.750000
408004,-50.000000,0.000000,14.750000
408014,50.000000,0.000000,14.750000
408015,60.000000,0.000000,14.750000
408016,70.000000,0.000000,14.750000
408017,80.000000,0.000000,14.750000
409001,-80.000000,10.000000,14.750000
409002,-70.000000,10.000000,14.750000
409003,-60.000000,10.000000,14.750000
409004,-50.000000,10.000000,14.750000
409014,50.000000,10.000000,14.750000
409015,60.000000,10.000000,14.750000
409016,70.000000,10.000000,14.750000
409017,80.000000,10.000000,14.750000
410001,-80.000000,20.000000,14.750000
410002,-70.000000,20.000000,14.750000
410003,-60.000000,20.000000,14.750000
410004,-50.000000,20.000000,14.750000
410014,50.000000,20.000000,14.750000
410015,60.000000,20.000000,14.750000
410016,70.000000,20.000000,14.750000
410017,80.000000,20.000000,14.750000
411001,-80.000000,30.000000,14.750000
411002,-70.000000,30.000000,14.750000
411003,-60.000000,30.000000,14.750000
411004,-50.000000,30.000000,14.750000
411005,-40.000000,30.000000,14.750000
411013,40.000000,30.000000,14.750000
411014,50.000000,30.000000,14.750000
411015,60.000000,30.000000,14.750000
411016,70.000000,30.000000,14.750000
411017,80.000000,30.000000,14.750000
412001,-80.000000,40.000000,14.750000
412002,-70.000000,40.000000,14.750000
412003,-60.000000,40.000000,14.750000
412004,-50.000000,40.000000,14.750000
412005,-40.000000,40.000000,14.750000
412006,-30.000000,40.000000,14.750000
412012,30.000000,40.000000,14.750000
412013,40.000000,40.000000,14.750000
412014,50.000000,40.000000,14.750000
412015,60.000000,40.000000,14.750000
412016,70.000000,40.000000,14.750000
412017,80.000000,40.000000,14.750000
413001,-80.000000,50.000000,14.750000
413002,-70.000000,50.000000,14.750000
413003,-60.000000,50.000000,14.750000
413004,-50.000000,50.000000,14.750000
413005,-40.000000,50.000000,14.750000
413006,-30.000000,50.000000,14.750000
413007,-20.000000,50.000000,14.750000
413008,-10.000000,50.000000,14.750000
413009,0.000000,50.000000,14.750000
413010,10.000000,50.000000,14.750000
413011,20.000000,50.000000,14.750000
413012,30.000000,50.000000,14.750000
413013,40.000000,50.000000,14.750000
413014,50.000000,50.000000,14.750000
413015,60.000000,50.000000,14.750000
413016,70.000000,50.000000,14.750000
413017,80.000000,50.000000,14.750000
414001,-80.000000,60.000000,14.750000
414002,-70.000000,60.000000,14.750000
414003,-60.000000,60.000000,14.750000
414004,-50.000000,60.000000,14.750000
414005,-40.000000,60.000000,14.750000
414006,-30.000000,60.000000,14.750000
414007,-20.000000,60.000000,14.750000
414008,-10.000000,60.000000,14.750000
414009,0.000000,60.000000,14.750000
414010,10.000000,60.000000,14.750000
414011,20.000000,60.000000,14.750000
414012,30.000000,60.000000,14.750000
414013,40.000000,60.000000,14.750000
414014,50.000000,60.000000,14.750000
414015,60.000000,60.000000,14.750000
414016,70.000000,60.000000,14.750000
414017,80.000000,60.000000,14.750000
415001,-80.000000,70.000000,14.750000
415002,-70.000000,70.000000,14.750000
415003,-60.000000,70.000000,14.750000
415004,-50.000000,70.000000,14.750000
415005,-40.000000,70.000000,14.750000
415006,-30.000000,70.000000,14.750000
415007,-20.000000,70.000000,14.750000
415008,-10.000000,70.000000,14.750000
415009,0.000000,70.000000,14.750000
415010,10.000000,70.000000,14.750000
415011,20.000000,70.000000,14.750000
415012,30.000000,70.000000,14.750000
415013,40.000000,70.000000,14.750000
415014,50.000000,70.000000,14.750000
415015,60.000000,70.000000,14.750000
415016,70.000000,70.000000,14.750000
415017,80.000000,70.000000,14.750000
416001,-80.000000,80.000000,14.750000
416002,-70.000000,80.000000,14.750000
416003,-60.000000,80.000000,14.750000
416004,-50.000000,80.000000,14.750000
416005,-40.000000,80.000000,14.750000
416006,-30.000000,80.000000,14.750000
416007,-20.000000,80.000000,14.750000
416008,-10.000000,80.000000,14.750000
416009,0.000000,80.000000,14.750000
416010,10.000000,80.000000,14.750000
416011,20.000000,80.000000,14.750000
416012,30.000000,80.000000,14.750000
416013,40.000000,80.000000,14.750000
416014,50.000000,80.000000,14.750000
416015,60.000000,80.000000,14.750000
416016,70.000000,80.000000,14.750000
416017,80.000000,80.000000,14.750000
500001,-80.000000,-80.000000,18.750000
500002,-70.000000,-80.000000,18.750000
500003,-60.000000,-80.000000,18.750000
500004,-50.000000,-80.000000,18.750000
500005,-40.000000,-80.000000,18.750000
500006,-30.000000,-80.000000,18.750000
500007,-20.000000,-80.000000,18.750000
500008,-10.000000,-80.000000,18.750000
500009,0.000000,-80.000000,18.750000
500010,10.000000,-80.000000,18.750000
500011,20.000000,-80.000000,18.750000
500012,30.000000,-80.000000,18.750000
500013,40.000000,-80.000000,18.750000
500014,50.000000,-80.000000,18.750000
500015,60.000000,-80.000000,18.750000
500016,70.000000,-80.000000,18.750000
500017,80.000000,-80.000000,18.750000
501001,-80.000000,-70.000000,18.750000
501002,-70.000000,-70.000000,18.750000
501003,-60.000000,-70.000000,18.750000
501004,-50.000000,-70.000000,18.750000
501005,-40.000000,-70.000000,18.750000
501006,-30.000000,-70.000000,18.750000
501007,-20.000000,-70.000000,18.750000
501008,-10.000000,-70.000000,18.750000
501009,0.000000,-70.000000,18.750000
501010,10.000000,-70.000000,18.750000
501011,20.000000,-70.000000,18.750000
501012,30.000000,-70.000000,18.750000
501013,40.000000,-70.000000,18.750000
501014,50.000000,-70.000000,18.750000
501015,60.000000,-70.000000,18.750000
501016,70.000000,-70.000000,18.750000
501017,80.000000,-70.000000,18.750000
502001,-80.000000,-60.000000,18.750000
502002,-70.000000,-60.000000,18.750000
502003,-60.000000,-60.000000,18.750000
502004,-50.000000,-60.000000,18.750000
502005,-40.000000,-60.000000,18.750000
502006,-30.000000,-60.000000,18.750000
502007,-20.000000,-60.000000,18.750000
502008,-10.000000,-60.000000,18.750000
502009,0.000000,-60.000000,18.750000
502010,10.000000,-60.000000,18.750000
502011,20.000000,-60.000000,18.750000
502012,30.000000,-60.000000,18.750000
502013,40.000000,-60.000000,18.750000
502014,50.000000,-60.000000,18.750000
502015,60.000000,-60.000000,18.750000
502016,70.000000,-60.000000,18.750000
502017,80.000000,-60.000000,18.750000
503001,-80.000000,-50.000000,18.750000
503002,-70.000000,-50.000000,18.750000
503003,-60.000000,-50.000000,18.750000
503004,-50.000000,-50.000000,18.750000
503005,-40.000000,-50.000000,18.750000
503006,-30.000000,-50.000000,18.750000
503007,-20.000000,-50.000000,18.750000
503008,-10.000000,-50.000000,18.750000
503009,0.000000,-50.000000,18.750000
503010,10.000000,-50.000000,18.750000
503011,20.000000,-50.000000,18.750000
503012,30.000000,-50.000000,18.750000
503013,40.000000,-50.000000,18.750000
503014,50.000000,-50.000000,18.750000
503015,60.000000,-50.000000,18.750000
503016,70.000000,-50.000000,18.750000
503017,80.000000,-50.000000,18.750000
504001,-80.000000,-40.000000,18.750000
504002,-70.000000,-40.000000,18.750000
504003,-60.000000,-40.000000,18.750000
504004,-50.000000,-40.000000,18.750000
504005,-40.000000,-40.000000,18.750000
504006,-30.000000,-40.000000,18.750000
504007,-20.000000,-40.000000,18.750000
504008,-10.000000,-40.000000,18.750000
504009,0.000000,-40.000000,18.750000
504010,10.000000,-40.000000,18.750000
504011,20.000000,-40.000000,18.750000
504012,30.000000,-40.000000,18.750000
504013,40.000000,-40.000000,18.750000
504014,50.000000,-40.000000,18.750000
504015,60.000000,-40.000000,18.750000
504016,70.000000,-40.000000,18.750000
504017,80.000000,-40.000000,18.750000
505001,-80.000000,-30.000000,18.750000
505002,-70.000000,-30.000000,18.750000
505003,-60.000000,-30.000000,18.750000
505004,-50.000000,-30.000000,18.750000
505005,-40.000000,-30.000000,18.750000
505006,-30.000000,-30.000000,18.750000
505007,-20.000000,-30.000000,18.750000
505008,-10.000000,-30.000000,18.750000
505009,0.000000,-30.000000,18.750000
505010,10.000000,-30.000000,18.750000
505011,20.000000,-30.000000,18.750000
505012,30.000000,-30.000000,18.750000
505013,40.000000,-30.000000,18.750000
505014,50.000000,-30.000000,18.750000
505015,60.000000,-30.000000,18.750000
505016,70.000000,-30.000000,18.750000
505017,80.000000,-30.000000,18.750000
506001,-80.000000,-20.000000,18.750000
506002,-70.000000,-20.000000,18.750000
506003,-60.000000,-20.000000,18.750000
506004,-50.000000,-20.000000,18.750000
506005,-40.000000,-20.000000,18.750000
506006,-30.000000,-20.000000,18.750000
506007,-20.000000,-20.000000,18.750000
506008,-10.000000,-20.000000,18.750000
506009,0.000000,-20.000000,18.750000
506010,10.000000,-20.000000,18.750000
506011,20.000000,-20.000000,18.750000
506012,30.000000,-20.000000,18.750000
506013,40.000000,-20.000000,18.750000
506014,50.000000,-20.000000,18.750000
506015,60.000000,-20.000000,18.750000
506016,70.000000,-20.000000,18.750000
506017,80.000000,-20.000000,18.750000
507001,-80.000000,-10.000000,18.750000
507002,-70.000000,-10.000000,18.750000
507003,-60.000000,-10.000000,18.750000
507004,-50.000000,-10.000000,18.750000
507005,-40.000000,-10.000000,18.750000
507006,-30.000000,-10.000000,18.750000
507007,-20.000000,-10.000000,18.750000
507008,-10.000000,-10.000000,18.750000
507009,0.000000,-10.000000,18.750000
507010,10.000000,-10.000000,18.750000
507011,20.000000,-10.000000,18.750000
507012,30.000000,-10.000000,18.750000
507013,40.000000,-10.000000,18.750000
507014,50.000000,-10.000000,18.750000
507015,60.000000,-10.000000,18.750000
507016,70.000000,-10.000000,18.750000
507017,80.000000,-10.000000,18.750000
508001,-80.000000,0.000000,18.750000
508002,-70.000000,0.000000,18.750000
508003,-60.000000,0.000000,18.750000
508004,-50.000000,0.000000,18.750000
508005,-40.000000,0.000000,18.750000
508006,-30.000000,0.000000,18.750000
508007,-20.000000,0.000000,18.750000
508008,-10.000000,0.000000,18.750000
508009,0.000000,0.000000,18.750000
508010,10.000000,0.000000,18.750000
508011,20.000000,0.000000,18.750000
508012,30.000000,0.000000,18.750000
508013,40.000000,0.000000,18.750000
508014,50.000000,0.000000,18.750000
508015,60.000000,0.000000,18.750000
508016,70.000000,0.000000,18.750000
508017,80.000000,0.000000,18.750000
509001,-80.000000,10.000000,18.750000
509002,-70.000000,10.000000,18.750000
509003,-60.000000,10.000000,18.750000
509004,-50.000000,10.000000,18.750000
509005,-40.000000,10.000000,18.750000
509006,-30.000000,10.000000,18.750000
509007,-20.000000,10.000000,18.750000
509008,-10.000000,10.000000,18.750000
509009,0.000000,10.000000,18.750000
509010,10.000000,10.000000,18.750000
509011,20.000000,10.000000,18.750000
509012,30.000000,10.000000,18.750000
509013,40.000000,10.000000,18.750000
509014,50.000000,10.000000,18.750000
509015,60.000000,10.000000,18.750000
509016,70.000000,10.000000,18.750000
509017,80.000000,10.000000,18.750000
510001,-80.000000,20.000000,18.750000
510002,-70.000000,20.000000,18.750000
510003,-60.000000,20.000000,18.750000
510004,-50.000000,20.000000,18.750000
510005,-40.000000,20.000000,18.750000
510006,-30.000000,20.000000,18.750000
510007,-20.000000,20.000000,18.750000
510008,-10.000000,20.000000,18.750000
510009,0.000000,20.000000,18.750000
510010,10.000000,20.000000,18.750000
510011,20.000000,20.000000,18.750000
510012,30.000000,20.000000,18.750000
510013,40.000000,20.000000,18.750000
510014,50.000000,20.000000,18.750000
510015,60.000000,20.000000,18.750000
510016,70.000000,20.000000,18.750000
510017,80.000000,20.000000,18.750000
511001,-80.000000,30.000000,18.750000
511002,-70.000000,30.000000,18.750000
511003,-60.000000,30.000000,18.750000
511004,-50.000000,30.000000,18.750000
511005,-40.000000,30.000000,18.750000
511006,-30.000000,30.000000,18.750000
511007,-20.000000,30.000000,18.750000
511008,-10.000000,30.000000,18.750000
511009,0.000000,30.000000,18.750000
511010,10.000000,30.000000,18.750000
511011,20.000000,30.000000,18.750000
511012,30.000000,30.000000,18.750000
511013,40.000000,30.000000,18.750000
511014,50.000000,30.000000,18.750000
511015,60.000000,30.000000,18.750000
511016,70.000000,30.000000,18.750000
511017,80.000000,30.000000,18.750000
512001,-80.000000,40.000000,18.750000
512002,-70.000000,40.000000,18.750000
512003,-60.000000,40.000000,18.750000
512004,-50.000000,40.000000,18.750000
512005,-40.000000,40.000000,18.750000
512006,-30.000000,40.000000,18.750000
512007,-20.000000,40.000000,18.750000
512008,-10.000000,40.000000,18.750000
512009,0.000000,40.000000,18.750000
512010,10.000000,40.000000,18.750000
512011,20.000000,40.000000,18.750000
512012,30.000000,40.000000,18.750000
512013,40.000000,40.000000,18.750000
512014,50.000000,40.000000,18.750000
512015,60.000000,40.000000,18.750000
512016,70.000000,40.000000,18.750000
512017,80.000000,40.000000,18.750000
513001,-80.000000,50.000000,18.750000
513002,-70.000000,50.000000,18.750000
513003,-60.000000,50.000000,18.750000
513004,-50.000000,50.000000,18.750000
513005,-40.000000,50.000000,18.750000
513006,-30.000000,50.000000,18.750000
513007,-20.000000,50.000000,18.750000
513008,-10.000000,50.000000,18.750000
513009,0.000000,50.000000,18.750000
513010,10.000000,50.000000,18.750000
513011,20.000000,50.000000,18.750000
513012,30.000000,50.000000,18.750000
513013,40.000000,50.000000,18.750000
513014,50.000000,50.000000,18.750000
513015,60.000000,50.000000,18.750000
513016,70.000000,50.000000,18.750000
513017,80.000000,50.000000,18.750000
514001,-80.000000,60.000000,18.750000
514002,-70.000000,60.000000,18.750000
514003,-60.000000,60.000000,18.750000
514004,-50.000000,60.000000,18.750000
514005,-40.000000,60.000000,18.750000
514006,-30.000000,60.000000,18.750000
514007,-20.000000,60.000000,18.750000
514008,-10.000000,60.000000,18.750000
514009,0.000000,60.000000,18.750000
514010,10.000000,60.000000,18.750000
514011,20.000000,60.000000,18.750000
514012,30.000000,60.000000,18.750000
514013,40.000000,60.000000,18.750000
514014,50.000000,60.000000,18.750000
514015,60.000000,60.000000,18.750000
514016,70.000000,60.000000,18.750000
514017,80.000000,60.000000,18.750000
515001,-80.000000,70.000000,18.750000
515002,-70.000000,70.000000,18.750000
515003,-60.000000,70.000000,18.750000
515004,-50.000000,70.000000,18.750000
515005,-40.000000,70.000000,18.750000
515006,-30.000000,70.000000,18.750000
515007,-20.000000,70.000000,18.750000
515008,-10.000000,70.000000,18.750000
515009,0.000000,70.000000,18.750000
515010,10.000000,70.000000,18.750000
515011,20.000000,70.000000,18.750000
515012,30.000000,70.000000,18.750000
515013,40.000000,70.000000,18.750000
515014,50.000000,70.000000,18.750000
515015,60.000000,70.000000,18.750000
515016,70.000000,70.000000,18.750000
515017,80.000000,70.000000,18.750000
516001,-80.000000,80.000000,18.750000
516002,-70.000000,80.000000,18.750000
516003,-60.000000,80.000000,18.750000
516004,-50.000000,80.000000,18.750000
516005,-40.000000,80.000000,18.750000
516006,-30.000000,80.000000,18.750000
516007,-20.000000,80.000000,18.750000
516008,-10.000000,80.000000,18.750000
516009,0.000000,80.000000,18.750000
516010,10.000000,80.000000,18.750000
516011,20.000000,80.000000,18.750000
516012,30.000000,80.000000,18.750000
516013,40.000000,80.000000,18.750000
516014,50.000000,80.000000,18.750000
516015,60.000000,80.000000,18.750000
516016,70.000000,80.000000,18.750000
516017,80.000000,80.000000,18.750000
600001,-80.000000,-80.000000,22.750000
600002,-70.000000,-80.000000,22.750000
600003,-60.000000,-80.000000,22.750000
600004,-50.000000,-80.000000,22.750000
600005,-40.000000,-80.000000,22.750000
600006,-30.000000,-80.000000,22.750000
600007,-20.000000,-80.000000,22.750000
600008,-10.000000,-80.000000,22.750000
600009,0.000000,-80.000000,22.750000
600010,10.000000,-80.000000,22.750000
600011,20.000000,-80.000000,22.750000
600012,30.000000,-80.000000,22.750000
600013,40.000000,-80.000000,22.750000
600014,50.000000,-80.000000,22.750000
600015,60.000000,-80.000000,22.750000
600016,70.000000,-80.000000,22.750000
600017,80.000000,-80.000000,22.750000
601001,-80.000000,-70.000000,22.750000
601002,-70.000000,-70.000000,22.750000
601003,-60.000000,-70.000000,22.750000
601004,-50.000000,-70.000000,22.750000
601005,-40.000000,-70.000000,22.750000
601006,-30.000000,-70.000000,22.750000
601007,-20.000000,-70.000000,22.750000
601008,-10.000000,-70.000000,22.750000
601009,0.000000,-70.000000,22.750000
601010,10.000000,-70.000000,22.750000
601011,20.000000,-70.000000,22.750000
601012,30.000000,-70.000000,22.750000
601013,40.000000,-70.000000,22.750000
601014,50.000000,-70.000000,22.750000
601015,60.000000,-70.000000,22.750000
601016,70.000000,-70.000000,22.750000
601017,80.000000,-70.000000,22.750000
602001,-80.000000,-60.000000,22.750000
602002,-70.000000,-60.000000,22.750000
602003,-60.000000,-60.000000,22.750000
602004,-50.000000,-60.000000,22.750000
602005,-40.000000,-60.000000,22.750000
602006,-30.000000,-60.000000,22.750000
602007,-20.000000,-60.000000,22.750000
602008,-10.000000,-60.000000,22.750000
602009,0.000000,-60.000000,22.750000
602010,10.000000,-60.000000,22.750000
602011,20.000000,-60.000000,22.750000
602012,30.000000,-60.000000,22.750000
602013,40.000000,-60.000000,22.750000
602014,50.000000,-60.000000,22.750000
602015,60.000000,-60.000000,22.750000
602016,70.000000,-60.000000,22.750000
602017,80.000000,-60.000000,22.750000
603001,-80.000000,-50.000000,22.750000
603002,-70.000000,-50.000000,22.750000
603003,-60.000000,-50.000000,22.750000
603004,-50.000000,-50.000000,22.750000
603005,-40.000000,-50.000000,22.750000
603006,-30.000000,-50.000000,22.750000
603007,-20.000000,-50.000000,22.750000
603008,-10.000000,-50.000000,22.750000
603009,0.000000,-50.000000,22.750000
603010,10.000000,-50.000000,22.750000
603011,20.000000,-50.000000,22.750000
603012,30.000000,-50.000000,22.750000
603013,40.000000,-50.000000,22.750000
603014,50.000000,-50.000000,22.750000
603015,60.000000,-50.000000,22.750000
603016,70.000000,-50.000000,22.750000
603017,80.000000,-50.000000,22.750000
604001,-80.000000,-40.000000,22.750000
604002,-70.000000,-40.000000,22.750000
604003,-60.000000,-40.000000,22.750000
604004,-50.000000,-40.000000,22.750000
604005,-40.000000,-40.000000,22.750000
604006,-30.000000,-40.000000,22.750000
604007,-20.000000,-40.000000,22.750000
604008,-10.000000,-40.000000,22.750000
604009,0.000000,-40.000000,22.750000
604010,10.000000,-40.000000,22.750000
604011,20.000000,-40.000000,22.750000
604012,30.000000,-40.000000,22.750000
604013,40.000000,-40.000000,22.750000
604014,50.000000,-40.000000,22.750000
604015,60.000000,-40.000000,22.750000
604016,70.000000,-40.000000,22.750000
604017,80.000000,-40.000000,22.750000
605001,-80.000000,-30.000000,22.750000
605002,-70.000000,-30.000000,22.750000
605003,-60.000000,-30.000000,22.750000
605004,-50.000000,-30.000000,22.750000
605005,-40.000000,-30.000000,22.750000
605006,-30.000000,-30.000000,22.750000
605007,-20.000000,-30.000000,22.750000
605008,-10.000000,-30.000000,22.750000
605009,0.000000,-30.000000,22.750000
605010,10.000000,-30.000000,22.750000
605011,20.000000,-30.000000,22.750000
605012,30.000000,-30.000000,22.750000
605013,40.000000,-30.000000,22.750000
605014,50.000000,-30.000000,22.750000
605015,60.000000,-30.000000,22.750000
605016,70.000000,-30.000000,22.750000
605017,80.000000,-30.000000,22.750000
606001,-80.000000,-20.000000,22.750000
606002,-70.000000,-20.000000,22.750000
606003,-60.000000,-20.000000,22.750000
606004,-50.000000,-20.000000,22.750000
606005,-40.000000,-20.000000,22.750000
606006,-30.000000,-20.000000,22.750000
606007,-20.000000,-20.000000,22.750000
606008,-10.000000,-20.000000,22.750000
606009,0.000000,-20.000000,22.750000
606010,10.000000,-20.000000,22.750000
606011,20.000000,-20.000000,22.750000
606012,30.000000,-20.000000,22.750000
606013,40.000000,-20.000000,22.750000
606014,50.000000,-20.000000,22.750000
606015,60.000000,-20.000000,22.750000
606016,70.000000,-20.000000,22.750000
606017,80.000000,-20.000000,22.750000
607001,-80.000000,-10.000000,22.750000
607002,-70.000000,-10.000000,22.750000
607003,-60.000000,-10.000000,22.750000
607004,-50.000000,-10.000000,22.750000
607005,-40.000000,-10.000000,22.750000
607006,-30.000000,-10.000000,22.750000
607007,-20.000000,-10.000000,22.750000
607008,-10.000000,-10.000000,22.750000
607009,0.000000,-10.000000,22.750000
607010,10.000000,-10.000000,22.750000
607011,20.000000,-10.000000,22.750000
607012,30.000000,-10.000000,22.750000
607013,40.000000,-10.000000,22.750000
607014,50.000000,-10.000000,22.750000
607015,60.000000,-10.000000,22.750000
607016,70.000000,-10.000000,22.750000
607017,80.000000,-10.000000,22.750000
608001,-80.000000,0.000000,22.750000
608002,-70.000000,0.000000,22.750000
608003,-60.000000,0.000000,22.750000
608004,-50.000000,0.000000,22.750000
608005,-40.000000,0.000000,22.750000
608006,-30.000000,0.000000,22.750000
608007,-20.000000,0.000000,22.750000
608008,-10.000000,0.000000,22.750000
608009,0.000000,0.000000,22.750000
608010,10.000000,0.000000,22.750000
608011,20.000000,0.000000,22.750000
608012,30.000000,0.000000,22.750000
608013,40.000000,0.000000,22.750000
608014,50.000000,0.000000,22.750000
608015,60.000000,0.000000,22.750000
608016,70.000000,0.000000,22.750000
608017,80.000000,0.000000,22.750000
609001,-80.000000,10.000000,22.750000
609002,-70.000000,10.000000,22.750000
609003,-60.000000,10.000000,22.750000
609004,-50.000000,10.000000,22.750000
609005,-40.000000,10.000000,22.750000
609006,-30.000000,10.000000,22.750000
609007,-20.000000,10.000000,22.750000
609008,-10.000000,10.000000,22.750000
609009,0.000000,10.000000,22.750000
609010,10.000000,10.000000,22.750000
609011,20.000000,10.000000,22.750000
609012,30.000000,10.000000,22.750000
609013,40.000000,10.000000,22.750000
609014,50.000000,10.000000,22.750000
609015,60.000000,10.000000,22.750000
609016,70.000000,10.000000,22.750000
609017,80.000000,10.000000,22.750000
610001,-80.000000,20.000000,22.750000
610002,-70.000000,20.000000,22.750000
610003,-60.000000,20.000000,22.750000
610004,-50.000000,20.000000,22.750000
610005,-40.000000,20.000000,22.750000
610006,-30.000000,20.000000,22.750000
610007,-20.000000,20.000000,22.750000
610008,-10.000000,20.000000,22.750000
610009,0.000000,20.000000,22.750000
610010,10.000000,20.000000,22.750000
610011,20.000000,20.000000,22.750000
610012,30.000000,20.000000,22.750000
610013,40.000000,20.000000,22.750000
610014,50.000000,20.000000,22.750000
610015,60.000000,20.000000,22.750000
610016,70.000000,20.000000,22.750000
610017,80.000000,20.000000,22.750000
611001,-80.000000,30.000000,22.750000
611002,-70.000000,30.000000,22.750000
611003,-60.000000,30.000000,22.750000
611004,-50.000000,30.000000,22.750000
611005,-40.000000,30.000000,22.750000
611006,-30.000000,30.000000,22.750000
611007,-20.000000,30.000000,22.750000
611008,-10.000000,30.000000,22.750000
611009,0.000000,30.000000,22.750000
611010,10.000000,30.000000,22.750000
611011,20.000000,30.000000,22.750000
611012,30.000000,30.000000,22.750000
611013,40.000000,30.000000,22.750000
611014,50.000000,30.000000,22.750000
611015,60.000000,30.000000,22.750000
611016,70.000000,30.000000,22.750000
611017,80.000000,30.000000,22.750000
612001,-80.000000,40.000000,22.750000
612002,-70.000000,40.000000,22.750000
612003,-60.000000,40.000000,22.750000
612004,-50.000000,40.000000,22.750000
612005,-40.000000,40.000000,22.750000
612006,-30.000000,40.000000,22.750000
612007,-20.000000,40.000000,22.750000
612008,-10.000000,40.000000,22.750000
612009,0.000000,40.000000,22.750000
612010,10.000000,40.000000,22.750000
612011,20.000000,40.000000,22.750000
612012,30.000000,40.000000,22.750000
612013,40.000000,40.000000,22.750000
612014,50.000000,40.000000,22.750000
612015,60.000000,40.000000,22.750000
612016,70.000000,40.000000,22.750000
612017,80.000000,40.000000,22.750000
613001,-80.000000,50.000000,22.750000
613002,-70.000000,50.000000,22.750000
613003,-60.000000,50.000000,22.750000
613004,-50.000000,50.000000,22.750000
613005,-40.000000,50.000000,22.750000
613006,-30.000000,50.000000,22.750000
613007,-20.000000,50.000000,22.750000
613008,-10.000000,50.000000,22.750000
613009,0.000000,50.000000,22.750000
613010,10.000000,50.000000,22.750000
613011,20.000000,50.000000,22.750000
613012,30.000000,50.000000,22.750000
613013,40.000000,50.000000,22.750000
613014,50.000000,50.000000,22.750000
613015,60.000000,50.000000,22.750000
613016,70.000000,50.000000,22.750000
613017,80.000000,50.000000,22.750000
614001,-80.000000,60.000000,22.750000
614002,-70.000000,60.000000,22.750000
614003,-60.000000,60.000000,22.750000
614004,-50.000000,60.000000,22.750000
614005,-40.000000,60.000000,22.750000
614006,-30.000000,60.000000,22.750000
614007,-20.000000,60.000000,22.750000
614008,-10.000000,60.000000,22.750000
614009,0.000000,60.000000,22.750000
614010,10.000000,60.000000,22.750000
614011,20.000000,60.000000,22.750000
614012,30.000000,60.000000,22.750000
614013,40.000000,60.000000,22.750000
614014,50.000000,60.000000,22.750000
614015,60.000000,60.000000,22.750000
614016,70.000000,60.000000,22.750000
614017,80.000000,60.000000,22.750000
615001,-80.000000,70.000000,22.750000
615002,-70.000000,70.000000,22.750000
615003,-60.000000,70.000000,22.750000
615004,-50.000000,70.000000,22.750000
615005,-40.000000,70.000000,22.750000
615006,-30.000000,70.000000,22.750000
615007,-20.000000,70.000000,22.750000
615008,-10.000000,70.000000,22.750000
615009,0.000000,70.000000,22.750000
615010,10.000000,70.000000,22.750000
615011,20.000000,70.000000,22.750000
615012,30.000000,70.000000,22.750000
615013,40.000000,70.000000,22.750000
615014,50.000000,70.000000,22.750000
615015,60.000000,70.000000,22.750000
615016,70.000000,70.000000,22.750000
615017,80.000000,70.000000,22.750000
616001,-80.000000,80.000000,22.750000
616002,-70.000000,80.000000,22.750000
616003,-60.000000,80.000000,22.750000
616004,-50.000000,80.000000,22.750000
616005,-40.000000,80.000000,22.750000
616006,-30.000000,80.000000,22.750000
616007,-20.000000,80.000000,22.750000
616008,-10.000000,80.000000,22.750000
616009,0.000000,80.000000,22.750000
616010,10.000000,80.000000,22.750000
616011,20.000000,80.000000,22.750000
616012,30.000000,80.000000,22.750000
616013,40.000000,80.000000,22.750000
616014,50.000000,80.000000,22.750000
616015,60.000000,80.000000,22.750000
616016,70.000000,80.000000,22.750000
616017,80.000000,80.000000,22.750000
701007,-20.000000,-70.000000,22.750000
701008,-10.000000,-70.000000,22.750000
701009,0.000000,-70.000000,22.750000
701010,10.000000,-70.000000,22.750000
701011,20.000000,-70.000000,22.750000
702005,-40.000000,-60.000000,22.750000
702006,-30.000000,-60.000000,22.750000
702007,-20.000000,-60.000000,22.750000
702008,-10.000000,-60.000000,22.750000
702009,0.000000,-60.000000,22.750000
702010,10.000000,-60.000000,22.750000
702011,20.000000,-60.000000,22.750000
702012,30.000000,-60.000000,22.750000
702013,40.000000,-60.000000,22.750000
703004,-50.000000,-50.000000,22.750000
703005,-40.000000,-50.000000,22.750000
703006,-30.000000,-50.000000,22.750000
703007,-20.000000,-50.000000,22.750000
703008,-10.000000,-50.000000,22.750000
703009,0.000000,-50.000000,22.750000
703010,10.000000,-50.000000,22.750000
703011,20.000000,-50.000000,22.750000
703012,30.000000,-50.000000,22.750000
703013,40.000000,-50.000000,22.750000
703014,50.000000,-50.000000,22.750000
704003,-60.000000,-40.000000,22.750000
704004,-50.000000,-40.000000,22.750000
704005,-40.000000,-40.000000,22.750000
704006,-30.000000,-40.000000,22.750000
704007,-20.000000,-40.000000,22.750000
704008,-10.000000,-40.000000,22.750000
704009,0.000000,-40.000000,22.750000
704010,10.000000,-40.000000,22.750000
704011,20.000000,-40.000000,22.750000
704012,30.000000,-40.000000,22.750000
704013,40.000000,-40.000000,22.750000
704014,50.000000,-40.000000,22.750000
704015,60.000000,-40.000000,22.750000
705003,-60.000000,-30.000000,22.750000
705004,-50.000000,-30.000000,22.750000
705005,-40.000000,-30.000000,22.750000
705006,-30.000000,-30.000000,22.750000
705007,-20.000000,-30.000000,22.750000
705008,-10.000000,-30.000000,22.750000
705009,0.000000,-30.000000,22.750000
705010,10.000000,-30.000000,22.750000
705011,20.000000,-30.000000,22.750000
705012,30.000000,-30.000000,22.750000
705013,40.000000,-30.000000,22.750000
705014,50.000000,-30.000000,22.750000
705015,60.000000,-30.000000,22.750000
706002,-70.000000,-20.000000,22.750000
706003,-60.000000,-20.000000,22.750000
706004,-50.000000,-20.000000,22.750000
706005,-40.000000,-20.000000,22.750000
706006,-30.000000,-20.000000,22.750000
706007,-20.000000,-20.000000,22.750000
706008,-10.000000,-20.000000,22.750000
706009,0.000000,-20.000000,22.750000
706010,10.000000,-20.000000,22.750000
706011,20.000000,-20.000000,22.750000
706012,30.000000,-20.000000,22.750000
706013,40.000000,-20.000000,22.750000
706014,50.000000,-20.000000,22.750000
706015,60.000000,-20.000000,22.750000
706016,70.000000,-20.000000,22.750000
707002,-70.000000,-10.000000,22.750000
707003,-60.000000,-10.000000,22.750000
707004,-50.000000,-10.000000,22.750000
707005,-40.000000,-10.000000,22.750000
707006,-30.000000,-10.000000,22.750000
707007,-20.000000,-10.000000,22.750000
707011,20.000000,-10.000000,22.750000
707012,30.000000,-10.000000,22.750000
707013,40.000000,-10.000000,22.750000
707014,50.000000,-10.000000,22.750000
707015,60.000000,-10.000000,22.750000
707016,70.000000,-10.000000,22.750000
708002,-70.000000,0.000000,22.750000
708003,-60.000000,0.000000,22.750000
708004,-50.000000,0.000000,22.750000
708005,-40.000000,0.000000,22.750000
708006,-30.000000,0.000000,22.750000
708007,-20.000000,0.000000,22.750000
708011,20.000000,0.000000,22.750000
708012,30.000000,0.000000,22.750000
708013,40.000000,0.000000,22.750000
708014,50.000000,0.000000,22.750000
708015,60.000000,0.000000,22.750000
708016,70.000000,0.000000,22.750000
709002,-70.000000,10.000000,22.750000
709003,-60.000000,10.000000,22.750000
709004,-50.000000,10.000000,22.750000
709005,-40.000000,10.000000,22.750000
709006,-30.000000,10.000000,22.750000
709007,-20.000000,10.000000,22.750000
709011,20.000000,10.000000,22.750000
709012,30.000000,10.000000,22.750000
709013,40.000000,10.000000,22.750000
709014,50.000000,10.000000,22.750000
709015,60.000000,10.000000,22.750000
709016,70.000000,10.000000,22.750000
710002,-70.000000,20.000000,22.750000
710003,-60.000000,20.000000,22.750000
710004,-50.000000,20.000000,22.750000
710005,-40.000000,20.000000,22.750000
710006,-30.000000,20.000000,22.750000
710007,-20.000000,20.000000,22.750000
710008,-10.000000,20.000000,22.750000
710009,0.000000,20.000000,22.750000
710010,10.000000,20.000000,22.750000
710011,20.000000,20.000000,22.750000
710012,30.000000,20.000000,22.750000
710013,40.000000,20.000000,22.750000
710014,50.000000,20.000000,22.750000
710015,60.000000,20.000000,22.750000
710016,70.000000,20.000000,22.750000
711003,-60.000000,30.000000,22.750000
711004,-50.000000,30.000000,22.750000
711005,-40.000000,30.000000,22.750000
711006,-30.000000,30.000000,22.750000
711007,-20.000000,30.000000,22.750000
711008,-10.000000,30.000000,22.750000
711009,0.000000,30.000000,22.750000
711010,10.000000,30.000000,22.750000
711011,20.000000,30.000000,22.750000
711012,30.000000,30.000000,22.750000
711013,40.000000,30.000000,22.750000
711014,50.000000,30.000000,22.750000
711015,60.000000,30.000000,22.750000
712003,-60.000000,40.000000,22.750000
712004,-50.000000,40.000000,22.750000
712005,-40.000000,40.000000,22.750000
712006,-30.000000,40.000000,22.750000
712007,-20.000000,40.000000,22.750000
712008,-10.000000,40.000000,22.750000
712009,0.000000,40.000000,22.750000
712010,10.000000,40.000000,22.750000
712011,20.000000,40.000000,22.750000
712012,30.000000,40.000000,22.750000
712013,40.000000,40.000000,22.750000
712014,50.000000,40.000000,22.750000
712015,60.000000,40.000000,22.750000
713004,-50.000000,50.000000,22.750000
713005,-40.000000,50.000000,22.750000
713006,-30.000000,50.000000,22.750000
713007,-20.000000,50.000000,22.750000
713008,-10.000000,50.000000,22.750000
713009,0.000000,50.000000,22.750000
713010,10.000000,50.000000,22.750000
713011,20.000000,50.000000,22.750000
713012,30.000000,50.000000,22.750000
713013,40.000000,50.000000,22.750000
713014,50.000000,50.000000,22.750000
714005,-40.000000,60.000000,22.750000
714006,-30.000000,60.000000,22.750000
714007,-20.000000,60.000000,22.750000
714008,-10.000000,60.000000,22.750000
714009,0.000000,60.000000,22.750000
714010,10.000000,60.000000,22.750000
714011,20.000000,60.000000,22.750000
714012,30.000000,60.000000,22.750000
714013,40.000000,60.000000,22.750000
715007,-20.000000,70.000000,22.750000
715008,-10.000000,70.000000,22.750000
715009,0.000000,70.000000,22.750000
715010,10.000000,70.000000,22.750000
715011,20.000000,70.000000,22.750000
801007,-20.000000,-70.000000,26.750000
801008,-10.000000,-70.000000,26.750000
801009,0.000000,-70.000000,26.750000
801010,10.000000,-70.000000,26.750000
801011,20.000000,-70.000000,26.750000
802005,-40.000000,-60.000000,26.750000
802006,-30.000000,-60.000000,26.750000
802007,-20.000000,-60.000000,26.750000
802008,-10.000000,-60.000000,26.750000
802009,0.000000,-60.000000,26.750000
802010,10.000000,-60.000000,26.750000
802011,20.000000,-60.000000,26.750000
802012,30.000000,-60.000000,26.750000
802013,40.000000,-60.000000,26.750000
803004,-50.000000,-50.000000,26.750000
803005,-40.000000,-50.000000,26.750000
803006,-30.000000,-50.000000,26.750000
803007,-20.000000,-50.000000,26.750000
803008,-10.000000,-50.000000,26.750000
803009,0.000000,-50.000000,26.750000
803010,10.000000,-50.000000,26.750000
803011,20.000000,-50.000000,26.750000
803012,30.000000,-50.000000,26.750000
803013,40.000000,-50.000000,26.750000
803014,50.000000,-50.000000,26.750000
804003,-60.000000,-40.000000,26.750000
804004,-50.000000,-40.000000,26.750000
804005,-40.000000,-40.000000,26.750000
804006,-30.000000,-40.000000,26.750000
804007,-20.000000,-40.000000,26.750000
804008,-10.000000,-40.000000,26.750000
804009,0.000000,-40.000000,26.750000
804010,10.000000,-40.000000,26.750000
804011,20.000000,-40.000000,26.750000
804012,30.000000,-40.000000,26.750000
804013,40.000000,-40.000000,26.750000
804014,50.000000,-40.000000,26.750000
804015,60.000000,-40.000000,26.750000
805003,-60.000000,-30.000000,26.750000
805004,-50.000000,-30.000000,26.750000
805005,-40.000000,-30.000000,26.750000
805006,-30.000000,-30.000000,26.750000
805007,-20.000000,-30.000000,26.750000
805008,-10.000000,-30.000000,26.750000
805009,0.000000,-30.000000,26.750000
805010,10.000000,-30.000000,26.750000
805011,20.000000,-30.000000,26.750000
805012,30.000000,-30.000000,26.750000
805013,40.000000,-30.000000,26.750000
805014,50.000000,-30.000000,26.750000
805015,60.000000,-30.000000,26.750000
806002,-70.000000,-20.000000,26.750000
806003,-60.000000,-20.000000,26.750000
806004,-50.000000,-20.000000,26.750000
806005,-40.000000,-20.000000,26.750000
806006,-30.000000,-20.000000,26.750000
806007,-20.000000,-20.000000,26.750000
806008,-10.000000,-20.000000,26.750000
806009,0.000000,-20.000000,26.750000
806010,10.000000,-20.000000,26.750000
806011,20.000000,-20.000000,26.750000
806012,30.000000,-20.000000,26.750000
806013,40.000000,-20.000000,26.750000
806014,50.000000,-20.000000,26.750000
806015,60.000000,-20.000000,26.750000
806016,70.000000,-20.000000,26.750000
807002,-70.000000,-10.000000,26.750000
807003,-60.000000,-10.000000,26.750000
807004,-50.000000,-10.000000,26.750000
807005,-40.000000,-10.000000,26.750000
807006,-30.000000,-10.000000,26.750000
807007,-20.000000,-10.000000,26.750000
807011,20.000000,-10.000000,26.750000
807012,30.000000,-10.000000,26.750000
807013,40.000000,-10.000000,26.750000
807014,50.000000,-10.000000,26.750000
807015,60.000000,-10.000000,26.750000
807016,70.000000,-10.000000,26.750000
808002,-70.000000,0.000000,26.750000
808003,-60.000000,0.000000,26.750000
808004,-50.000000,0.000000,26.750000
808005,-40.000000,0.000000,26.750000
808006,-30.000000,0.000000,26.750000
808007,-20.000000,0.000000,26.750000
808011,20.000000,0.000000,26.750000
808012,30.000000,0.000000,26.750000
808013,40.000000,0.000000,26.750000
808014,50.000000,0.000000,26.750000
808015,60.000000,0.000000,26.750000
808016,70.000000,0.000000,26.750000
809002,-70.000000,10.000000,26.750000
809003,-60.000000,10.000000,26.750000
809004,-50.000000,10.000000,26.750000
809005,-40.000000,10.000000,26.750000
809006,-30.000000,10.000000,26.750000
809007,-20.000000,10.000000,26.750000
809011,20.000000,10.000000,26.750000
809012,30.000000,10.000000,26.750000
809013,40.000000,10.000000,26.750000
809014,50.000000,10.000000,26.750000
809015,60.000000,10.000000,26.750000
809016,70.000000,10.000000,26.750000
810002,-70.000000,20.000000,26.750000
810003,-60.000000,20.000000,26.750000
810004,-50.000000,20.000000,26.750000
810005,-40.000000,20.000000,26.750000
810006,-30.000000,20.000000,26.750000
810007,-20.000000,20.000000,26.750000
810008,-10.000000,20.000000,26.750000
810009,0.000000,20.000000,26.750000
810010,10.000000,20.000000,26.750000
810011,20.000000,20.000000,26.750000
810012,30.000000,20.000000,26.750000
810013,40.000000,20.000000,26.750000
810014,50.000000,20.000000,26.750000
810015,60.000000,20.000000,26.750000
810016,70.000000,20.000000,26.750000
811003,-60.000000,30.000000,26.750000
811004,-50.000000,30.000000,26.750000
811005,-40.000000,30.000000,26.750000
811006,-30.000000,30.000000,26.750000
811007,-20.000000,30.000000,26.750000
811008,-10.000000,30.000000,26.750000
811009,0.000000,30.000000,26.750000
811010,10.000000,30.000000,26.750000
811011,20.000000,30.000000,26.750000
811012,30.000000,30.000000,26.750000
811013,40.000000,30.000000,26.750000
811014,50.000000,30.000000,26.750000
811015,60.000000,30.000000,26.750000
812003,-60.000000,40.000000,26.750000
812004,-50.000000,40.000000,26.750000
812005,-40.000000,40.000000,26.750000
812006,-30.000000,40.000000,26.750000
812007,-20.000000,40.000000,26.750000
812008,-10.000000,40.000000,26.750000
812009,0.000000,40.000000,26.750000
812010,10.000000,40.000000,26.750000
812011,20.000000,40.000000,26.750000
812012,30.000000,40.000000,26.750000
812013,40.000000,40.000000,26.750000
812014,50.000000,40.000000,26.750000
812015,60.000000,40.000000,26.750000
813004,-50.000000,50.000000,26.750000
813005,-40.000000,50.000000,26.750000
813006,-30.000000,50.000000,26.750000
813007,-20.000000,50.000000,26.750000
813008,-10.000000,50.000000,26.750000
813009,0.000000,50.000000,26.750000
813010,10.000000,50.000000,26.750000
813011,20.000000,50.000000,26.750000
813012,30.000000,50.000000,26.750000
813013,40.000000,50.000000,26.750000
813014,50.000000,50.000000,26.750000
814005,-40.000000,60.000000,26.750000
814006,-30.000000,60.000000,26.750000
814007,-20.000000,60.000000,26.750000
814008,-10.000000,60.000000,26.750000
814009,0.000000,60.000000,26.750000
814010,10.000000,60.000000,26.750000
814011,20.000000,60.000000,26.750000
814012,30.000000,60.000000,26.750000
814013,40.000000,60.000000,26.750000
815007,-20.000000,70.000000,26.750000
815008,-10.000000,70.000000,26.750000
815009,0.000000,70.000000,26.750000
815010,10.000000,70.000000,26.750000
815011,20.000000,70.000000,26.750000
901007,-20.000000,-70.000000,30.750000
901008,-10.000000,-70.000000,30.750000
901009,0.000000,-70.000000,30.750000
901010,10.000000,-70.000000,30.750000
901011,20.000000,-70.000000,30.750000
902005,-40.000000,-60.000000,30.750000
902006,-30.000000,-60.000000,30.750000
902007,-20.000000,-60.000000,30.750000
902008,-10.000000,-60.000000,30.750000
902009,0.000000,-60.000000,30.750000
902010,10.000000,-60.000000,30.750000
902011,20.000000,-60.000000,30.750000
902012,30.000000,-60.000000,30.750000
902013,40.000000,-60.000000,30.750000
903004,-50.000000,-50.000000,30.750000
903005,-40.000000,-50.000000,30.750000
903006,-30.000000,-50.000000,30.750000
903007,-20.000000,-50.000000,30.750000
903008,-10.000000,-50.000000,30.750000
903009,0.000000,-50.000000,30.750000
903010,10.000000,-50.000000,30.750000
903011,20.000000,-50.000000,30.750000
903012,30.000000,-50.000000,30.750000
903013,40.000000,-50.000000,30.750000
903014,50.000000,-50.000000,30.750000
904003,-60.000000,-40.000000,30.750000
904004,-50.000000,-40.000000,30.750000
904005,-40.000000,-40.000000,30.750000
904006,-30.000000,-40.000000,30.750000
904007,-20.000000,-40.000000,30.750000
904008,-10.000000,-40.000000,30.750000
904009,0.000000,-40.000000,30.750000
904010,10.000000,-40.000000,30.750000
904011,20.000000,-40.000000,30.750000
904012,30.000000,-40.000000,30.750000
904013,40.000000,-40.000000,30.750000
904014,50.000000,-40.000000,30.750000
904015,60.000000,-40.000000,30.750000
905003,-60.000000,-30.000000,30.750000
905004,-50.000000,-30.000000,30.750000
905005,-40.000000,-30.000000,30.750000
905006,-30.000000,-30.000000,30.750000
905007,-20.000000,-30.000000,30.750000
905008,-10.000000,-30.000000,30.750000
905009,0.000000,-30.000000,30.750000
905010,10.000000,-30.000000,30.750000
905011,20.000000,-30.000000,30.750000
905012,30.000000,-30.000000,30.750000
905013,40.000000,-30.000000,30.750000
905014,50.000000,-30.000000,30.750000
905015,60.000000,-30.000000,30.750000
906002,-70.000000,-20.000000,30.750000
906003,-60.000000,-20.000000,30.750000
906004,-50.000000,-20.000000,30.750000
906005,-40.000000,-20.000000,30.750000
906006,-30.000000,-20.000000,30.750000
906007,-20.000000,-20.000000,30.750000
906008,-10.000000,-20.000000,30.750000
906009,0.000000,-20.000000,30.750000
906010,10.000000,-20.000000,30.750000
906011,20.000000,-20.000000,30.750000
906012,30.000000,-20.000000,30.750000
906013,40.000000,-20.000000,30.750000
906014,50.000000,-20.000000,30.750000
906015,60.000000,-20.000000,30.750000
906016,70.000000,-20.000000,30.750000
907002,-70.000000,-10.000000,30.750000
907003,-60.000000,-10.000000,30.750000
907004,-50.000000,-10.000000,30.750000
907005,-40.000000,-10.000000,30.750000
907006,-30.000000,-10.000000,30.750000
907007,-20.000000,-10.000000,30.750000
907011,20.000000,-10.000000,30.750000
907012,30.000000,-10.000000,30.750000
907013,40.000000,-10.000000,30.750000
907014,50.000000,-10.000000,30.750000
907015,60.000000,-10.000000,30.750000
907016,70.000000,-10.000000,30.750000
908002,-70.000000,0.000000,30.750000
908003,-60.000000,0.000000,30.750000
908004,-50.000000,0.000000,30.750000
908005,-40.000000,0.000000,30.750000
908006,-30.000000,0.000000,30.750000
908007,-20.000000,0.000000,30.750000
908011,20.000000,0.000000,30.750000
908012,30.000000,0.000000,30.750000
908013,40.000000,0.000000,30.750000
908014,50.000000,0.000000,30.750000
908015,60.000000,0.000000,30.750000
908016,70.000000,0.000000,30.750000
909002,-70.000000,10.000000,30.750000
909003,-60.000000,10.000000,30.750000
909004,-50.000000,10.000000,30.750000
909005,-40.000000,10.000000,30.750000
909006,-30.000000,10.000000,30.750000
909007,-20.000000,10.000000,30.750000
909011,20.000000,10.000000,30.750000
909012,30.000000,10.000000,30.750000
909013,40.000000,10.000000,30.750000
909014,50.000000,10.000000,30.750000
909015,60.000000,10.000000,30.750000
909016,70.000000,10.000000,30.750000
910002,-70.000000,20.000000,30.750000
910003,-60.000000,20.000000,30.750000
910004,-50.000000,20.000000,30.750000
910005,-40.000000,20.000000,30.750000
910006,-30.000000,20.000000,30.750000
910007,-20.000000,20.000000,30.750000
910008,-10.000000,20.000000,30.750000
910009,0.000000,20.000000,30.750000
910010,10.000000,20.000000,30.750000
910011,20.000000,20.000000,30.750000
910012,30.000000,20.000000,30.750000
910013,40.000000,20.000000,30.750000
910014,50.000000,20.000000,30.750000
910015,60.000000,20.000000,30.750000
910016,70.000000,20.000000,30.750000
911003,-60.000000,30.000000,30.750000
911004,-50.000000,30.000000,30.750000
911005,-40.000000,30.000000,30.750000
911006,-30.000000,30.000000,30.750000
911007,-20.000000,30.000000,30.750000
911008,-10.000000,30.000000,30.750000
911009,0.000000,30.000000,30.750000
911010,10.000000,30.000000,30.750000
911011,20.000000,30.000000,30.750000
911012,30.000000,30.000000,30.750000
911013,40.000000,30.000000,30.750000
911014,50.000000,30.000000,30.750000
911015,60.000000,30.000000,30.750000
912003,-60.000000,40.000000,30.750000
912004,-50.000000,40.000000,30.750000
912005,-40.000000,40.000000,30.750000
912006,-30.000000,40.000000,30.750000
912007,-20.000000,40.000000,30.750000
912008,-10.000000,40.000000,30.750000
912009,0.000000,40.000000,30.750000
912010,10.000000,40.000000,30.750000
912011,20.000000,40.000000,30.750000
912012,30.000000,40.000000,30.750000
912013,40.000000,40.000000,30.750000
912014,50.000000,40.000000,30.750000
912015,60.000000,40.000000,30.750000
913004,-50.000000,50.000000,30.750000
913005,-40.000000,50.000000,30.750000
913006,-30.000000,50.000000,30.750000
913007,-20.000000,50.000000,30.750000
913008,-10.000000,50.000000,30.750000
913009,0.000000,50.000000,30.750000
913010,10.000000,50.000000,30.750000
913011,20.000000,50.000000,30.750000
913012,30.000000,50.000000,30.750000
913013,40.000000,50.000000,30.750000
913014,50.000000,50.000000,30.750000
914005,-40.000000,60.000000,30.750000
914006,-30.000000,60.000000,30.750000
914007,-20.000000,60.000000,30.750000
914008,-10.000000,60.000000,30.750000
914009,0.000000,60.000000,30.750000
914010,10.000000,60.000000,30.750000
914011,20.000000,60.000000,30.750000
914012,30.000000,60.000000,30.750000
914013,40.000000,60.000000,30.750000
915007,-20.000000,70.000000,30.750000
915008,-10.000000,70.000000,30.750000
915009,0.000000,70.000000,30.750000
915010,10.000000,70.000000,30.750000
915011,20.000000,70.000000,30.750000
900000,0.0,0.0,30.75
900100,70.000000,70.000000,10.750000
900101,70.000000,-70.000000,10.750000
900102,-70.000000,70.000000,10.750000
900103,-70.000000,-70.000000,10.750000
900200,57.742471,23.917715,22.750000
900201,23.917715,57.742471,22.750000
900202,-23.917715,57.742471,22.750000
900203,-57.742471,23.917715,22.750000
900204,-57.742471,-23.917715,22.750000
900205,-23.917715,-57.742471,22.750000
900206,23.917715,-57.742471,22.750000
900207,57.742471,-23.917715,22.750000
*ELEMENT,TYPE=C3D8R,ELSET=EALL
1,1,2,1002,1001,100001,100002,101002,101001
2,2,3,1003,1002,100002,100003,101003,101002
3,3,4,1004,1003,100003,100004,101004,101003
4,4,5,1005,1004,100004,100005,101005,101004
5,5,6,1006,1005,100005,100006,101006,101005
6,6,7,1007,1006,100006,100007,101007,101006
7,7,8,1008,1007,100007,100008,101008,101007
8,8,9,1009,1008,100008,100009,101009,101008
9,9,10,1010,1009,100009,100010,101010,101009
10,10,11,1011,1010,100010,100011,101011,101010
11,11,12,1012,1011,100011,100012,101012,101011
12,12,13,1013,1012,100012,100013,101013,101012
13,13,14,1014,1013,100013,100014,101014,101013
14,14,15,1015,1014,100014,100015,101015,101014
15,15,16,1016,1015,100015,100016,101016,101015
16,16,17,1017,1016,100016,100017,101017,101016
17,1001,1002,2002,2001,101001,101002,102002,102001
18,1002,1003,2003,2002,101002,101003,102003,102002
19,1003,1004,2004,2003,101003,101004,102004,102003
20,1004,1005,2005,2004,101004,101005,102005,102004
21,1005,1006,2006,2005,101005,101006,102006,102005
22,1006,1007,2007,2006,101006,101007,102007,102006
23,1007,1008,2008,2007,101007,101008,102008,102007
24,1008,1009,2009,2008,101008,101009,102009,102008
25,1009,1010,2010,2009,101009,101010,102010,102009
26,1010,1011,2011,2010,101010,101011,102011,102010
27,1011,1012,2012,2011,101011,101012,102012,102011
28,1012,1013,2013,2012,101012,101013,102013,102012
29,1013,1014,2014,2013,101013,101014,102014,102013
30,1014,1015,2015,2014,101014,101015,102015,102014
31,1015,1016,2016,2015,101015,101016,102016,102015
32,1016,1017,2017,2016,101016,101017,102017,102016
33,2001,2002,3002,3001,102001,102002,103002,103001
34,2002,2003,3003,3002,102002,102003,103003,103002
35,2003,2004,3004,3003,102003,102004,103004,103003
36,2004,2005,3005,3004,102004,102005,103005,103004
37,2005,2006,3006,3005,102005,102006,103006,103005
38,2006,2007,3007,3006,102006,102007,103007,103006
39,2007,2008,3008,3007,102007,102008,103008,103007
40,2008,2009,3009,3008,102008,102009,103009,103008
41,2009,2010,3010,3009,102009,102010,103010,103009
42,2010,2011,3011,3010,102010,102011,103011,103010
43,2011,2012,3012,3011,102011,102012,103012,103011
44,2012,2013,3013,3012,102012,102013,103013,103012
45,2013,2014,3014,3013,102013,102014,103014,103013
46,2014,2015,3015,3014,102014,102015,103015,103014
47,2015,2016,3016,3015,102015,102016,103016,103015
48,2016,2017,3017,3016,102016,102017,103017,103016
49,3001,3002,4002,4001,103001,103002,104002,104001
50,3002,3003,4003,4002,103002,103003,104003,104002
51,3003,3004,4004,4003,103003,103004,104004,104003
52,3004,3005,4005,4004,103004,103005,104005,104004
53,3005,3006,4006,4005,103005,103006,104006,104005
54,3006,3007,4007,4006,103006,103007,104007,104006
55,3007,3008,4008,4007,103007,103008,104008,104007
56,3008,3009,4009,4008,103008,103009,104009,104008
57,3009,3010,4010,4009,103009,103010,104010,104009
58,3010,3011,4011,4010,103010,103011,104011,104010
59,3011,3012,4012,4011,103011,103012,104012,104011
60,3012,3013,4013,4012,103012,103013,104013,104012
61,3013,3014,4014,4013,103013,103014,104014,104013
62,3014,3015,4015,4014,103014,103015,104015,104014
63,3015,3016,4016,4015,103015,103016,104016,104015
64,3016,3017,4017,4016,103016,103017,104017,104016
65,4001,4002,5002,5001,104001,104002,105002,105001
66,4002,4003,5003,5002,104002,104003,105003,105002
67,4003,4004,5004,5003,104003,104004,105004,105003
68,4004,4005,5005,5004,104004,104005,105005,105004
69,4005,4006,5006,5005,104005,104006,105006,105005
70,4006,4007,5007,5006,104006,104007,105007,105006
71,4007,4008,5008,5007,104007,104008,105008,105007
72,4008,4009,5009,5008,104008,104009,105009,105008
73,4009,4010,5010,5009,104009,104010,105010,105009
74,4010,4011,5011,5010,104010,104011,105011,105010
75,4011,4012,5012,5011,104011,104012,105012,105011
76,4012,4013,5013,5012,104012,104013,105013,105012
77,4013,4014,5014,5013,104013,104014,105014,105013
78,4014,4015,5015,5014,104014,104015,105015,105014
79,4015,4016,5016,5015,104015,104016,105016,105015
80,4016,4017,5017,5016,104016,104017,105017,105016
81,5001,5002,6002,6001,105001,105002,106002,106001
82,5002,5003,6003,6002,105002,105003,106003,106002
83,5003,5004,6004,6003,105003,105004,106004,106003
84,5004,5005,6005,6004,105004,105005,106005,106004
85,5005,5006,6006,6005,105005,105006,106006,106005
86,5006,5007,6007,6006,105006,105007,106007,106006
87,5007,5008,6008,6007,105007,105008,106008,106007
88,5008,5009,6009,6008,105008,105009,106009,106008
89,5009,5010,6010,6009,105009,105010,106010,106009
90,5010,5011,6011,6010,105010,105011,106011,106010
91,5011,5012,6012,6011,105011,105012,106012,106011
92,5012,5013,6013,6012,105012,105013,106013,106012
93,5013,5014,6014,6013,105013,105014,106014,106013
94,5014,5015,6015,6014,105014,105015,106015,106014
95,5015,5016,6016,6015,105015,105016,106016,106015
96,5016,5017,6017,6016,105016,105017,106017,106016
97,6001,6002,7002,7001,106001,106002,107002,107001
98,6002,6003,7003,7002,106002,106003,107003,107002
99,6003,6004,7004,7003,106003,106004,107004,107003
100,6004,6005,7005,7004,106004,106005,107005,107004
101,6005,6006,7006,7005,106005,106006,107006,107005
102,6006,6007,7007,7006,106006,106007,107007,107006
103,6011,6012,7012,7011,106011,106012,107012,107011
104,6012,6013,7013,7012,106012,106013,107013,107012
105,6013,6014,7014,7013,106013,106014,107014,107013
106,6014,6015,7015,7014,106014,106015,107015,107014
107,6015,6016,7016,7015,106015,106016,107016,107015
108,6016,6017,7017,7016,106016,106017,107017,107016
109,7001,7002,8002,8001,107001,107002,108002,108001
110,7002,7003,8003,8002,107002,107003,108003,108002
111,7003,7004,8004,8003,107003,107004,108004,108003
112,7004,7005,8005,8004,107004,107005,108005,108004
113,7005,7006,8006,8005,107005,107006,108006,108005
114,7006,7007,8007,8006,107006,107007,108007,108006
115,7011,7012,8012,8011,107011,107012,108012,108011
116,7012,7013,8013,8012,107012,107013,108013,108012
117,7013,7014,8014,8013,107013,107014,108014,108013
118,7014,7015,8015,8014,107014,107015,108015,108014
119,7015,7016,8016,8015,107015,107016,108016,108015
120,7016,7017,8017,8016,107016,107017,108017,108016
121,8001,8002,9002,9001,108001,108002,109002,109001
122,8002,8003,9003,9002,108002,108003,109003,109002
123,8003,8004,9004,9003,108003,108004,109004,109003
124,8004,8005,9005,9004,108004,108005,109005,109004
125,8005,8006,9006,9005,108005,108006,109006,109005
126,8006,8007,9007,9006,108006,108007,109007,109006
127,8011,8012,9012,9011,108011,108012,109012,109011
128,8012,8013,9013,9012,108012,108013,109013,109012
129,8013,8014,9014,9013,108013,108014,109014,109013
130,8014,8015,9015,9014,108014,108015,109015,109014
131,8015,8016,9016,9015,108015,108016,109016,109015
132,8016,8017,9017,9016,108016,108017,109017,109016
133,9001,9002,10002,10001,109001,109002,110002,110001
134,9002,9003,10003,10002,109002,109003,110003,110002
135,9003,9004,10004,10003,109003,109004,110004,110003
136,9004,9005,10005,10004,109004,109005,110005,110004
137,9005,9006,10006,10005,109005,109006,110006,110005
138,9006,9007,10007,10006,109006,109007,110007,110006
139,9011,9012,10012,10011,109011,109012,110012,110011
140,9012,9013,10013,10012,109012,109013,110013,110012
141,9013,9014,10014,10013,109013,109014,110014,110013
142,9014,9015,10015,10014,109014,109015,110015,110014
143,9015,9016,10016,10015,109015,109016,110016,110015
144,9016,9017,10017,10016,109016,109017,110017,110016
145,10001,10002,11002,11001,110001,110002,111002,111001
146,10002,10003,11003,11002,110002,110003,111003,111002
147,10003,10004,11004,11003,110003,110004,111004,111003
148,10004,10005,11005,11004,110004,110005,111005,111004
149,10005,10006,11006,11005,110005,110006,111006,111005
150,10006,10007,11007,11006,110006,110007,111007,111006
151,10007,10008,11008,11007,110007,110008,111008,111007
152,10008,10009,11009,11008,110008,110009,111009,111008
153,10009,10010,11010,11009,110009,110010,111010,111009
154,10010,10011,11011,11010,110010,110011,111011,111010
155,10011,10012,11012,11011,110011,110012,111012,111011
156,10012,10013,11013,11012,110012,110013,111013,111012
157,10013,10014,11014,11013,110013,110014,111014,111013
158,10014,10015,11015,11014,110014,110015,111015,111014
159,10015,10016,11016,11015,110015,110016,111016,111015
160,10016,10017,11017,11016,110016,110017,111017,111016
161,11001,11002,12002,12001,111001,111002,112002,112001
162,11002,11003,12003,12002,111002,111003,112003,112002
163,11003,11004,12004,12003,111003,111004,112004,112003
164,11004,11005,12005,12004,111004,111005,112005,112004
165,11005,11006,12006,12005,111005,111006,112006,112005
166,11006,11007,12007,12006,111006,111007,112007,112006
167,11007,11008,12008,12007,111007,111008,112008,112007
168,11008,11009,12009,12008,111008,111009,112009,112008
169,11009,11010,12010,12009,111009,111010,112010,112009
170,11010,11011,12011,12010,111010,111011,112011,112010
171,11011,11012,12012,12011,111011,111012,112012,112011
172,11012,11013,12013,12012,111012,111013,112013,112012
173,11013,11014,12014,12013,111013,111014,112014,112013
174,11014,11015,12015,12014,111014,111015,112015,112014
175,11015,11016,12016,12015,111015,111016,112016,112015
176,11016,11017,12017,12016,111016,111017,112017,112016
177,12001,12002,13002,13001,112001,112002,113002,113001
178,12002,12003,13003,13002,112002,112003,113003,113002
179,12003,12004,13004,13003,112003,112004,113004,113003
180,12004,12005,13005,13004,112004,112005,113005,113004
181,12005,12006,13006,13005,112005,112006,113006,113005
182,12006,12007,13007,13006,112006,112007,113007,113006
183,12007,12008,13008,13007,112007,112008,113008,113007
184,12008,12009,13009,13008,112008,112009,113009,113008
185,12009,12010,13010,13009,112009,112010,113010,113009
186,12010,12011,13011,13010,112010,112011,113011,113010
187,12011,12012,13012,13011,112011,112012,113012,113011
188,12012,12013,13013,13012,112012,112013,113013,113012
189,12013,12014,13014,13013,112013,112014,113014,113013
190,12014,12015,13015,13014,112014,112015,113015,113014
191,12015,12016,13016,13015,112015,112016,113016,113015
192,12016,12017,13017,13016,112016,112017,113017,113016
193,13001,13002,14002,14001,113001,113002,114002,114001
194,13002,13003,14003,14002,113002,113003,114003,114002
195,13003,13004,14004,14003,113003,113004,114004,114003
196,13004,13005,14005,14004,113004,113005,114005,114004
197,13005,13006,14006,14005,113005,113006,114006,114005
198,13006,13007,14007,14006,113006,113007,114007,114006
199,13007,13008,14008,14007,113007,113008,114008,114007
200,13008,13009,14009,14008,113008,113009,114009,114008
201,13009,13010,14010,14009,113009,113010,114010,114009
202,13010,13011,14011,14010,113010,113011,114011,114010
203,13011,13012,14012,14011,113011,113012,114012,114011
204,13012,13013,14013,14012,113012,113013,114013,114012
205,13013,13014,14014,14013,113013,113014,114014,114013
206,13014,13015,14015,14014,113014,113015,114015,114014
207,13015,13016,14016,14015,113015,113016,114016,114015
208,13016,13017,14017,14016,113016,113017,114017,114016
209,14001,14002,15002,15001,114001,114002,115002,115001
210,14002,14003,15003,15002,114002,114003,115003,115002
211,14003,14004,15004,15003,114003,114004,115004,115003
212,14004,14005,15005,15004,114004,114005,115005,115004
213,14005,14006,15006,15005,114005,114006,115006,115005
214,14006,14007,15007,15006,114006,114007,115007,115006
215,14007,14008,15008,15007,114007,114008,115008,115007
216,14008,14009,15009,15008,114008,114009,115009,115008
217,14009,14010,15010,15009,114009,114010,115010,115009
218,14010,14011,15011,15010,114010,114011,115011,115010
219,14011,14012,15012,15011,114011,114012,115012,115011
220,14012,14013,15013,15012,114012,114013,115013,115012
221,14013,14014,15014,15013,114013,114014,115014,115013
222,14014,14015,15015,15014,114014,114015,115015,115014
223,14015,14016,15016,15015,114015,114016,115016,115015
224,14016,14017,15017,15016,114016,114017,115017,115016
225,15001,15002,16002,16001,115001,115002,116002,116001
226,15002,15003,16003,16002,115002,115003,116003,116002
227,15003,15004,16004,16003,115003,115004,116004,116003
228,15004,15005,16005,16004,115004,115005,116005,116004
229,15005,15006,16006,16005,115005,115006,116006,116005
230,15006,15007,16007,16006,115006,115007,116007,116006
231,15007,15008,16008,16007,115007,115008,116008,116007
232,15008,15009,16009,16008,115008,115009,116009,116008
233,15009,15010,16010,16009,115009,115010,116010,116009
234,15010,15011,16011,16010,115010,115011,116011,116010
235,15011,15012,16012,16011,115011,115012,116012,116011
236,15012,15013,16013,16012,115012,115013,116013,116012
237,15013,15014,16014,16013,115013,115014,116014,116013
238,15014,15015,16015,16014,115014,115015,116015,116014
239,15015,15016,16016,16015,115015,115016,116016,116015
240,15016,15017,16017,16016,115016,115017,116017,116016
241,100001,100002,101002,101001,200001,200002,201002,201001
242,100002,100003,101003,101002,200002,200003,201003,201002
243,100003,100004,101004,101003,200003,200004,201004,201003
244,100004,100005,101005,101004,200004,200005,201005,201004
245,100005,100006,101006,101005,200005,200006,201006,201005
246,100006,100007,101007,101006,200006,200007,201007,201006
247,100007,100008,101008,101007,200007,200008,201008,201007
248,100008,100009,101009,101008,200008,200009,201009,201008
249,100009,100010,101010,101009,200009,200010,201010,201009
250,100010,100011,101011,101010,200010,200011,201011,201010
251,100011,100012,101012,101011,200011,200012,201012,201011
252,100012,100013,101013,101012,200012,200013,201013,201012
253,100013,100014,101014,101013,200013,200014,201014,201013
254,100014,100015,101015,101014,200014,200015,201015,201014
255,100015,100016,101016,101015,200015,200016,201016,201015
256,100016,100017,101017,101016,200016,200017,201017,201016
257,101001,101002,102002,102001,201001,201002,202002,202001
258,101002,101003,102003,102002,201002,201003,202003,202002
259,101003,101004,102004,102003,201003,201004,202004,202003
260,101004,101005,102005,102004,201004,201005,202005,202004
261,101005,101006,102006,102005,201005,201006,202006,202005
262,101006,101007,102007,102006,201006,201007,202007,202006
263,101007,101008,102008,102007,201007,201008,202008,202007
264,101008,101009,102009,102008,201008,201009,202009,202008
265,101009,101010,102010,102009,201009,201010,202010,202009
266,101010,101011,102011,102010,201010,201011,202011,202010
267,101011,101012,102012,102011,201011,201012,202012,202011
268,101012,101013,102013,102012,201012,201013,202013,202012
269,101013,101014,102014,102013,201013,201014,202014,202013
270,101014,101015,102015,102014,201014,201015,202015,202014
271,101015,101016,102016,102015,201015,201016,202016,202015
272,101016,101017,102017,102016,201016,201017,202017,202016
273,102001,102002,103002,103001,202001,202002,203002,203001
274,102002,102003,103003,103002,202002,202003,203003,203002
275,102003,102004,103004,103003,202003,202004,203004,203003
276,102004,102005,103005,103004,202004,202005,203005,203004
277,102005,102006,103006,103005,202005,202006,203006,203005
278,102006,102007,103007,103006,202006,202007,203007,203006
279,102007,102008,103008,103007,202007,202008,203008,203007
280,102008,102009,103009,103008,202008,202009,203009,203008
281,102009,102010,103010,103009,202009,202010,203010,203009
282,102010,102011,103011,103010,202010,202011,203011,203010
283,102011,102012,103012,103011,202011,202012,203012,203011
284,102012,102013,103013,103012,202012,202013,203013,203012
285,102013,102014,103014,103013,202013,202014,203014,203013
286,102014,102015,103015,103014,202014,202015,203015,203014
287,102015,102016,103016,103015,202015,202016,203016,203015
288,102016,102017,103017,103016,202016,202017,203017,203016
289,103001,103002,104002,104001,203001,203002,204002,204001
290,103002,103003,104003,104002,203002,203003,204003,204002
291,103003,103004,104004,104003,203003,203004,204004,204003
292,103004,103005,104005,104004,203004,203005,204005,204004
293,103005,103006,104006,104005,203005,203006,204006,204005
294,103006,103007,104007,104006,203006,203007,204007,204006
295,103007,103008,104008,104007,203007,203008,204008,204007
296,103008,103009,104009,104008,203008,203009,204009,204008
297,103009,103010,104010,104009,203009,203010,204010,204009
298,103010,103011,104011,104010,203010,203011,204011,204010
299,103011,103012,104012,104011,203011,203012,204012,204011
300,103012,103013,104013,104012,203012,203013,204013,204012
301,103013,103014,104014,104013,203013,203014,204014,204013
302,103014,103015,104015,104014,203014,203015,204015,204014
303,103015,103016,104016,104015,203015,203016,204016,204015
304,103016,103017,104017,104016,203016,203017,204017,204016
305,104001,104002,105002,105001,204001,204002,205002,205001
306,104002,104003,105003,105002,204002,204003,205003,205002
307,104003,104004,105004,105003,204003,204004,205004,205003
308,104004,104005,105005,105004,204004,204005,205005,205004
309,104005,104006,105006,105005,204005,204006,205006,205005
310,104006,104007,105007,105006,204006,204007,205007,205006
311,104007,104008,105008,105007,204007,204008,205008,205007
312,104008,104009,105009,105008,204008,204009,205009,205008
313,104009,104010,105010,105009,204009,204010,205010,205009
314,104010,104011,105011,105010,204010,204011,205011,205010
315,104011,104012,105012,105011,204011,204012,205012,205011
316,104012,104013,105013,105012,204012,204013,205013,205012
317,104013,104014,105014,105013,204013,204014,205014,205013
318,104014,104015,105015,105014,204014,204015,205015,205014
319,104015,104016,105016,105015,204015,204016,205016,205015
320,104016,104017,105017,105016,204016,204017,205017,205016
321,105001,105002,106002,106001,205001,205002,206002,206001
322,105002,105003,106003,106002,205002,205003,206003,206002
323,105003,105004,106004,106003,205003,205004,206004,206003
324,105004,105005,106005,106004,205004,205005,206005,206004
325,105005,105006,106006,106005,205005,205006,206006,206005
326,105006,105007,106007,106006,205006,205007,206007,206006
327,105007,105008,106008,106007,205007,205008,206008,206007
328,105008,105009,106009,106008,205008,205009,206009,206008
329,105009,105010,106010,106009,205009,205010,206010,206009
330,105010,105011,106011,106010,205010,205011,206011,206010
331,105011,105012,106012,106011,205011,205012,206012,206011
332,105012,105013,106013,106012,205012,205013,206013,206012
333,105013,105014,106014,106013,205013,205014,206014,206013
334,105014,105015,106015,106014,205014,205015,206015,206014
335,105015,105016,106016,106015,205015,205016,206016,206015
336,105016,105017,106017,106016,205016,205017,206017,206016
337,106001,106002,107002,107001,206001,206002,207002,207001
338,106002,106003,107003,107002,206002,206003,207003,207002
339,106003,106004,107004,107003,206003,206004,207004,207003
340,106004,106005,107005,107004,206004,206005,207005,207004
341,106005,106006,107006,107005,206005,206006,207006,207005
342,106006,106007,107007,107006,206006,206007,207007,207006
343,106011,106012,107012,107011,206011,206012,207012,207011
344,106012,106013,107013,107012,206012,206013,207013,207012
345,106013,106014,107014,107013,206013,206014,207014,207013
346,106014,106015,107015,107014,206014,206015,207015,207014
347,106015,106016,107016,107015,206015,206016,207016,207015
348,106016,106017,107017,107016,206016,206017,207017,207016
349,107001,107002,108002,108001,207001,207002,208002,208001
350,107002,107003,108003,108002,207002,207003,208003,208002
351,107003,107004,108004,108003,207003,207004,208004,208003
352,107004,107005,108005,108004,207004,207005,208005,208004
353,107005,107006,108006,108005,207005,207006,208006,208005
354,107006,107007,108007,108006,207006,207007,208007,208006
355,107011,107012,108012,108011,207011,207012,208012,208011
356,107012,107013,108013,108012,207012,207013,208013,208012
357,107013,107014,108014,108013,207013,207014,208014,208013
358,107014,107015,108015,108014,207014,207015,208015,208014
359,107015,107016,108016,108015,207015,207016,208016,208015
360,107016,107017,108017,108016,207016,207017,208017,208016
361,108001,108002,109002,109001,208001,208002,209002,209001
362,108002,108003,109003,109002,208002,208003,209003,209002
363,108003,108004,109004,109003,208003,208004,209004,209003
364,108004,108005,109005,109004,208004,208005,209005,209004
365,108005,108006,109006,109005,208005,208006,209006,209005
366,108006,108007,109007,109006,208006,208007,209007,209006
367,108011,108012,109012,109011,208011,208012,209012,209011
368,108012,108013,109013,109012,208012,208013,209013,209012
369,108013,108014,109014,109013,208013,208014,209014,209013
370,108014,108015,109015,109014,208014,208015,209015,209014
371,108015,108016,109016,109015,208015,208016,209016,209015
372,108016,108017,109017,109016,208016,208017,209017,209016
373,109001,109002,110002,110001,209001,209002,210002,210001
374,109002,109003,110003,110002,209002,209003,210003,210002
375,109003,109004,110004,110003,209003,209004,210004,210003
376,109004,109005,110005,110004,209004,209005,210005,210004
377,109005,109006,110006,110005,209005,209006,210006,210005
378,109006,109007,110007,110006,209006,209007,210007,210006
379,109011,109012,110012,110011,209011,209012,210012,210011
380,109012,109013,110013,110012,209012,209013,210013,210012
381,109013,109014,110014,110013,209013,209014,210014,210013
382,109014,109015,110015,110014,209014,209015,210015,210014
383,109015,109016,110016,110015,209015,209016,210016,210015
384,109016,109017,110017,110016,209016,209017,210017,210016
385,110001,110002,111002,111001,210001,210002,211002,211001
386,110002,110003,111003,111002,210002,210003,211003,211002
387,110003,110004,111004,111003,210003,210004,211004,211003
388,110004,110005,111005,111004,210004,210005,211005,211004
389,110005,110006,111006,111005,210005,210006,211006,211005
390,110006,110007,111007,111006,210006,210007,211007,211006
391,110007,110008,111008,111007,210007,210008,211008,211007
392,110008,110009,111009,111008,210008,210009,211009,211008
393,110009,110010,111010,111009,210009,210010,211010,211009
394,110010,110011,111011,111010,210010,210011,211011,211010
395,110011,110012,111012,111011,210011,210012,211012,211011
396,110012,110013,111013,111012,210012,210013,211013,211012
397,110013,110014,111014,111013,210013,210014,211014,211013
398,110014,110015,111015,111014,210014,210015,211015,211014
399,110015,110016,111016,111015,210015,210016,211016,211015
400,110016,110017,111017,111016,210016,210017,211017,211016
401,111001,111002,112002,112001,211001,211002,212002,212001
402,111002,111003,112003,112002,211002,211003,212003,212002
403,111003,111004,112004,112003,211003,211004,212004,212003
404,111004,111005,112005,112004,211004,211005,212005,212004
405,111005,111006,112006,112005,211005,211006,212006,212005
406,111006,111007,112007,112006,211006,211007,212007,212006
407,111007,111008,112008,112007,211007,211008,212008,212007
408,111008,111009,112009,112008,211008,211009,212009,212008
409,111009,111010,112010,112009,211009,211010,212010,212009
410,111010,111011,112011,112010,211010,211011,212011,212010
411,111011,111012,112012,112011,211011,211012,212012,212011
412,111012,111013,112013,112012,211012,211013,212013,212012
413,111013,111014,112014,112013,211013,211014,212014,212013
414,111014,111015,112015,112014,211014,211015,212015,212014
415,111015,111016,112016,112015,211015,211016,212016,212015
416,111016,111017,112017,112016,211016,211017,212017,212016
417,112001,112002,113002,113001,212001,212002,213002,213001
418,112002,112003,113003,113002,212002,212003,213003,213002
419,112003,112004,113004,113003,212003,212004,213004,213003
420,112004,112005,113005,113004,212004,212005,213005,213004
421,112005,112006,113006,113005,212005,212006,213006,213005
422,112006,112007,113007,113006,212006,212007,213007,213006
423,112007,112008,113008,113007,212007,212008,213008,213007
424,112008,112009,113009,113008,212008,212009,213009,213008
425,112009,112010,113010,113009,212009,212010,213010,213009
426,112010,112011,113011,113010,212010,212011,213011,213010
427,112011,112012,113012,113011,212011,212012,213012,213011
428,112012,112013,113013,113012,212012,212013,213013,213012
429,112013,112014,113014,113013,212013,212014,213014,213013
430,112014,112015,113015,113014,212014,212015,213015,213014
431,112015,112016,113016,113015,212015,212016,213016,213015
432,112016,112017,113017,113016,212016,212017,213017,213016
433,113001,113002,114002,114001,213001,213002,214002,214001
434,113002,113003,114003,114002,213002,213003,214003,214002
435,113003,113004,114004,114003,213003,213004,214004,214003
436,113004,113005,114005,114004,213004,213005,214005,214004
437,113005,113006,114006,114005,213005,213006,214006,214005
438,113006,113007,114007,114006,213006,213007,214007,214006
439,113007,113008,114008,114007,213007,213008,214008,214007
440,113008,113009,114009,114008,213008,213009,214009,214008
441,113009,113010,114010,114009,213009,213010,214010,214009
442,113010,113011,114011,114010,213010,213011,214011,214010
443,113011,113012,114012,114011,213011,213012,214012,214011
444,113012,113013,114013,114012,213012,213013,214013,214012
445,113013,113014,114014,114013,213013,213014,214014,214013
446,113014,113015,114015,114014,213014,213015,214015,214014
447,113015,113016,114016,114015,213015,213016,214016,214015
448,113016,113017,114017,114016,213016,213017,214017,214016
449,114001,114002,115002,115001,214001,214002,215002,215001
450,114002,114003,115003,115002,214002,214003,215003,215002
451,114003,114004,115004,115003,214003,214004,215004,215003
452,114004,114005,115005,115004,214004,214005,215005,215004
453,114005,114006,115006,115005,214005,214006,215006,215005
454,114006,114007,115007,115006,214006,214007,215007,215006
455,114007,114008,115008,115007,214007,214008,215008,215007
456,114008,114009,115009,115008,214008,214009,215009,215008
457,114009,114010,115010,115009,214009,214010,215010,215009
458,114010,114011,115011,115010,214010,214011,215011,215010
459,114011,114012,115012,115011,214011,214012,215012,215011
460,114012,114013,115013,115012,214012,214013,215013,215012
461,114013,114014,115014,115013,214013,214014,215014,215013
462,114014,114015,115015,115014,214014,214015,215015,215014
463,114015,114016,115016,115015,214015,214016,215016,215015
464,114016,114017,115017,115016,214016,214017,215017,215016
465,115001,115002,116002,116001,215001,215002,216002,216001
466,115002,115003,116003,116002,215002,215003,216003,216002
467,115003,115004,116004,116003,215003,215004,216004,216003
468,115004,115005,116005,116004,215004,215005,216005,216004
469,115005,115006,116006,116005,215005,215006,216006,216005
470,115006,115007,116007,116006,215006,215007,216007,216006
471,115007,115008,116008,116007,215007,215008,216008,216007
472,115008,115009,116009,116008,215008,215009,216009,216008
473,115009,115010,116010,116009,215009,215010,216010,216009
474,115010,115011,116011,116010,215010,215011,216011,216010
475,115011,115012,116012,116011,215011,215012,216012,216011
476,115012,115013,116013,116012,215012,215013,216013,216012
477,115013,115014,116014,116013,215013,215014,216014,216013
478,115014,115015,116015,116014,215014,215015,216015,216014
479,115015,115016,116016,116015,215015,215016,216016,216015
480,115016,115017,116017,116016,215016,215017,216017,216016
481,300001,300002,301002,301001,400001,400002,401002,401001
482,300002,300003,301003,301002,400002,400003,401003,401002
483,300003,300004,301004,301003,400003,400004,401004,401003
484,300004,300005,301005,301004,400004,400005,401005,401004
485,300005,300006,301006,301005,400005,400006,401006,401005
486,300006,300007,301007,301006,400006,400007,401007,401006
487,300007,300008,301008,301007,400007,400008,401008,401007
488,300008,300009,301009,301008,400008,400009,401009,401008
489,300009,300010,301010,301009,400009,400010,401010,401009
490,300010,300011,301011,301010,400010,400011,401011,401010
491,300011,300012,301012,301011,400011,400012,401012,401011
492,300012,300013,301013,301012,400012,400013,401013,401012
493,300013,300014,301014,301013,400013,400014,401014,401013
494,300014,300015,301015,301014,400014,400015,401015,401014
495,300015,300016,301016,301015,400015,400016,401016,401015
496,300016,300017,301017,301016,400016,400017,401017,401016
497,301001,301002,302002,302001,401001,401002,402002,402001
498,301002,301003,302003,302002,401002,401003,402003,402002
499,301003,301004,302004,302003,401003,401004,402004,402003
500,301004,301005,302005,302004,401004,401005,402005,402004
501,301005,301006,302006,302005,401005,401006,402006,402005
502,301006,301007,302007,302006,401006,401007,402007,402006
503,301007,301008,302008,302007,401007,401008,402008,402007
504,301008,301009,302009,302008,401008,401009,402009,402008
505,301009,301010,302010,302009,401009,401010,402010,402009
506,301010,301011,302011,302010,401010,401011,402011,402010
507,301011,301012,302012,302011,401011,401012,402012,402011
508,301012,301013,302013,302012,401012,401013,402013,402012
509,301013,301014,302014,302013,401013,401014,402014,402013
510,301014,301015,302015,302014,401014,401015,402015,402014
511,301015,301016,302016,302015,401015,401016,402016,402015
512,301016,301017,302017,302016,401016,401017,402017,402016
513,302001,302002,303002,303001,402001,402002,403002,403001
514,302002,302003,303003,303002,402002,402003,403003,403002
515,302003,302004,303004,303003,402003,402004,403004,403003
516,302004,302005,303005,303004,402004,402005,403005,403004
517,302005,302006,303006,303005,402005,402006,403006,403005
518,302006,302007,303007,303006,402006,402007,403007,403006
519,302007,302008,303008,303007,402007,402008,403008,403007
520,302008,302009,303009,303008,402008,402009,403009,403008
521,302009,302010,303010,303009,402009,402010,403010,403009
522,302010,302011,303011,303010,402010,402011,403011,403010
523,302011,302012,303012,303011,402011,402012,403012,403011
524,302012,302013,303013,303012,402012,402013,403013,403012
525,302013,302014,303014,303013,402013,402014,403014,403013
526,302014,302015,303015,303014,402014,402015,403015,403014
527,302015,302016,303016,303015,402015,402016,403016,403015
528,302016,302017,303017,303016,402016,402017,403017,403016
529,303001,303002,304002,304001,403001,403002,404002,404001
530,303002,303003,304003,304002,403002,403003,404003,404002
531,303003,303004,304004,304003,403003,403004,404004,404003
532,303004,303005,304005,304004,403004,403005,404005,404004
533,303005,303006,304006,304005,403005,403006,404006,404005
534,303012,303013,304013,304012,403012,403013,404013,404012
535,303013,303014,304014,304013,403013,403014,404014,404013
536,303014,303015,304015,304014,403014,403015,404015,404014
537,303015,303016,304016,304015,403015,403016,404016,404015
538,303016,303017,304017,304016,403016,403017,404017,404016
539,304001,304002,305002,305001,404001,404002,405002,405001
540,304002,304003,305003,305002,404002,404003,405003,405002
541,304003,304004,305004,305003,404003,404004,405004,405003
542,304004,304005,305005,305004,404004,404005,405005,405004
543,304013,304014,305014,305013,404013,404014,405014,405013
544,304014,304015,305015,305014,404014,404015,405015,405014
545,304015,304016,305016,305015,404015,404016,405016,405015
546,304016,304017,305017,305016,404016,404017,405017,405016
547,305001,305002,306002,306001,405001,405002,406002,406001
548,305002,305003,306003,306002,405002,405003,406003,406002
549,305003,305004,306004,306003,405003,405004,406004,406003
550,305014,305015,306015,306014,405014,405015,406015,406014
551,305015,305016,306016,306015,405015,405016,406016,406015
552,305016,305017,306017,306016,405016,405017,406017,406016
553,306001,306002,307002,307001,406001,406002,407002,407001
554,306002,306003,307003,307002,406002,406003,407003,407002
555,306003,306004,307004,307003,406003,406004,407004,407003
556,306014,306015,307015,307014,406014,406015,407015,407014
557,306015,306016,307016,307015,406015,406016,407016,407015
558,306016,306017,307017,307016,406016,406017,407017,407016
559,307001,307002,308002,308001,407001,407002,408002,408001
560,307002,307003,308003,308002,407002,407003,408003,408002
561,307003,307004,308004,308003,407003,407004,408004,408003
562,307014,307015,308015,308014,407014,407015,408015,408014
563,307015,307016,308016,308015,407015,407016,408016,408015
564,307016,307017,308017,308016,407016,407017,408017,408016
565,308001,308002,309002,309001,408001,408002,409002,409001
566,308002,308003,309003,309002,408002,408003,409003,409002
567,308003,308004,309004,309003,408003,408004,409004,409003
568,308014,308015,309015,309014,408014,408015,409015,409014
569,308015,308016,309016,309015,408015,408016,409016,409015
570,308016,308017,309017,309016,408016,408017,409017,409016
571,309001,309002,310002,310001,409001,409002,410002,410001
572,309002,309003,310003,310002,409002,409003,410003,410002
573,309003,309004,310004,310003,409003,409004,410004,410003
574,309014,309015,310015,310014,409014,409015,410015,410014
575,309015,309016,310016,310015,409015,409016,410016,410015
576,309016,309017,310017,310016,409016,409017,410017,410016
577,310001,310002,311002,311001,410001,410002,411002,411001
578,310002,310003,311003,311002,410002,410003,411003,411002
579,310003,310004,311004,311003,410003,410004,411004,411003
580,310014,310015,311015,311014,410014,410015,411015,411014
581,310015,310016,311016,311015,410015,410016,411016,411015
582,310016,310017,311017,311016,410016,410017,411017,411016
583,311001,311002,312002,312001,411001,411002,412002,412001
584,311002,311003,312003,312002,411002,411003,412003,412002
585,311003,311004,312004,312003,411003,411004,412004,412003
586,311004,311005,312005,312004,411004,411005,412005,412004
587,311013,311014,312014,312013,411013,411014,412014,412013
588,311014,311015,312015,312014,411014,411015,412015,412014
589,311015,311016,312016,312015,411015,411016,412016,412015
590,311016,311017,312017,312016,411016,411017,412017,412016
591,312001,312002,313002,313001,412001,412002,413002,413001
592,312002,312003,313003,313002,412002,412003,413003,413002
593,312003,312004,313004,313003,412003,412004,413004,413003
594,312004,312005,313005,313004,412004,412005,413005,413004
595,312005,312006,313006,313005,412005,412006,413006,413005
596,312012,312013,313013,313012,412012,412013,413013,413012
597,312013,312014,313014,313013,412013,412014,413014,413013
598,312014,312015,313015,313014,412014,412015,413015,413014
599,312015,312016,313016,313015,412015,412016,413016,413015
600,312016,312017,313017,313016,412016,412017,413017,413016
601,313001,313002,314002,314001,413001,413002,414002,414001
602,313002,313003,314003,314002,413002,413003,414003,414002
603,313003,313004,314004,314003,413003,413004,414004,414003
604,313004,313005,314005,314004,413004,413005,414005,414004
605,313005,313006,314006,314005,413005,413006,414006,414005
606,313006,313007,314007,314006,413006,413007,414007,414006
607,313007,313008,314008,314007,413007,413008,414008,414007
608,313008,313009,314009,314008,413008,413009,414009,414008
609,313009,313010,314010,314009,413009,413010,414010,414009
610,313010,313011,314011,314010,413010,413011,414011,414010
611,313011,313012,314012,314011,413011,413012,414012,414011
612,313012,313013,314013,314012,413012,413013,414013,414012
613,313013,313014,314014,314013,413013,413014,414014,414013
614,313014,313015,314015,314014,413014,413015,414015,414014
615,313015,313016,314016,314015,413015,413016,414016,414015
616,313016,313017,314017,314016,413016,413017,414017,414016
617,314001,314002,315002,315001,414001,414002,415002,415001
618,314002,314003,315003,315002,414002,414003,415003,415002
619,314003,314004,315004,315003,414003,414004,415004,415003
620,314004,314005,315005,315004,414004,414005,415005,415004
621,314005,314006,315006,315005,414005,414006,415006,415005
622,314006,314007,315007,315006,414006,414007,415007,415006
623,314007,314008,315008,315007,414007,414008,415008,415007
624,314008,314009,315009,315008,414008,414009,415009,415008
625,314009,314010,315010,315009,414009,414010,415010,415009
626,314010,314011,315011,315010,414010,414011,415011,415010
627,314011,314012,315012,315011,414011,414012,415012,415011
628,314012,314013,315013,315012,414012,414013,415013,415012
629,314013,314014,315014,315013,414013,414014,415014,415013
630,314014,314015,315015,315014,414014,414015,415015,415014
631,314015,314016,315016,315015,414015,414016,415016,415015
632,314016,314017,315017,315016,414016,414017,415017,415016
633,315001,315002,316002,316001,415001,415002,416002,416001
634,315002,315003,316003,316002,415002,415003,416003,416002
635,315003,315004,316004,316003,415003,415004,416004,416003
636,315004,315005,316005,316004,415004,415005,416005,416004
637,315005,315006,316006,316005,415005,415006,416006,416005
638,315006,315007,316007,316006,415006,415007,416007,416006
639,315007,315008,316008,316007,415007,415008,416008,416007
640,315008,315009,316009,316008,415008,415009,416009,416008
641,315009,315010,316010,316009,415009,415010,416010,416009
642,315010,315011,316011,316010,415010,415011,416011,416010
643,315011,315012,316012,316011,415011,415012,416012,416011
644,315012,315013,316013,316012,415012,415013,416013,416012
645,315013,315014,316014,316013,415013,415014,416014,416013
646,315014,315015,316015,316014,415014,415015,416015,416014
647,315015,315016,316016,316015,415015,415016,416016,416015
648,315016,315017,316017,316016,415016,415017,416017,416016
649,400001,400002,401002,401001,500001,500002,501002,501001
650,400002,400003,401003,401002,500002,500003,501003,501002
651,400003,400004,401004,401003,500003,500004,501004,501003
652,400004,400005,401005,401004,500004,500005,501005,501004
653,400005,400006,401006,401005,500005,500006,501006,501005
654,400006,400007,401007,401006,500006,500007,501007,501006
655,400007,400008,401008,401007,500007,500008,501008,501007
656,400008,400009,401009,401008,500008,500009,501009,501008
657,400009,400010,401010,401009,500009,500010,501010,501009
658,400010,400011,401011,401010,500010,500011,501011,501010
659,400011,400012,401012,401011,500011,500012,501012,501011
660,400012,400013,401013,401012,500012,500013,501013,501012
661,400013,400014,401014,401013,500013,500014,501014,501013
662,400014,400015,401015,401014,500014,500015,501015,501014
663,400015,400016,401016,401015,500015,500016,501016,501015
664,400016,400017,401017,401016,500016,500017,501017,501016
665,401001,401002,402002,402001,501001,501002,502002,502001
666,401002,401003,402003,402002,501002,501003,502003,502002
667,401003,401004,402004,402003,501003,501004,502004,502003
668,401004,401005,402005,402004,501004,501005,502005,502004
669,401005,401006,402006,402005,501005,501006,502006,502005
670,401006,401007,402007,402006,501006,501007,502007,502006
671,401007,401008,402008,402007,501007,501008,502008,502007
672,401008,401009,402009,402008,501008,501009,502009,502008
673,401009,401010,402010,402009,501009,501010,502010,502009
674,401010,401011,402011,402010,501010,501011,502011,502010
675,401011,401012,402012,402011,501011,501012,502012,502011
676,401012,401013,402013,402012,501012,501013,502013,502012
677,401013,401014,402014,402013,501013,501014,502014,502013
678,401014,401015,402015,402014,501014,501015,502015,502014
679,401015,401016,402016,402015,501015,501016,502016,502015
680,401016,401017,402017,402016,501016,501017,502017,502016
681,402001,402002,403002,403001,502001,502002,503002,503001
682,402002,402003,403003,403002,502002,502003,503003,503002
683,402003,402004,403004,403003,502003,502004,503004,503003
684,402004,402005,403005,403004,502004,502005,503005,503004
685,402005,402006,403006,403005,502005,502006,503006,503005
686,402006,402007,403007,403006,502006,502007,503007,503006
687,402007,402008,403008,403007,502007,502008,503008,503007
688,402008,402009,403009,403008,502008,502009,503009,503008
689,402009,402010,403010,403009,502009,502010,503010,503009
690,402010,402011,403011,403010,502010,502011,503011,503010
691,402011,402012,403012,403011,502011,502012,503012,503011
692,402012,402013,403013,403012,502012,502013,503013,503012
693,402013,402014,403014,403013,502013,502014,503014,503013
694,402014,402015,403015,403014,502014,502015,503015,503014
695,402015,402016,403016,403015,502015,502016,503016,503015
696,402016,402017,403017,403016,502016,502017,503017,503016
697,403001,403002,404002,404001,503001,503002,504002,504001
698,403002,403003,404003,404002,503002,503003,504003,504002
699,403003,403004,404004,404003,503003,503004,504004,504003
700,403004,403005,404005,404004,503004,503005,504005,504004
701,403005,403006,404006,404005,503005,503006,504006,504005
702,403012,403013,404013,404012,503012,503013,504013,504012
703,403013,403014,404014,404013,503013,503014,504014,504013
704,403014,403015,404015,404014,503014,503015,504015,504014
705,403015,403016,404016,404015,503015,503016,504016,504015
706,403016,403017,404017,404016,503016,503017,504017,504016
707,404001,404002,405002,405001,504001,504002,505002,505001
708,404002,404003,405003,405002,504002,504003,505003,505002
709,404003,404004,405004,405003,504003,504004,505004,505003
710,404004,404005,405005,405004,504004,504005,505005,505004
711,404013,404014,405014,405013,504013,504014,505014,505013
712,404014,404015,405015,405014,504014,504015,505015,505014
713,404015,404016,405016,405015,504015,504016,505016,505015
714,404016,404017,405017,405016,504016,504017,505017,505016
715,405001,405002,406002,406001,505001,505002,506002,506001
716,405002,405003,406003,406002,505002,505003,506003,506002
717,405003,405004,406004,406003,505003,505004,506004,506003
718,405014,405015,406015,406014,505014,505015,506015,506014
719,405015,405016,406016,406015,505015,505016,506016,506015
720,405016,405017,406017,406016,505016,505017,506017,506016
721,406001,406002,407002,407001,506001,506002,507002,507001
722,406002,406003,407003,407002,506002,506003,507003,507002
723,406003,406004,407004,407003,506003,506004,507004,507003
724,406014,406015,407015,407014,506014,506015,507015,507014
725,406015,406016,407016,407015,506015,506016,507016,507015
726,406016,406017,407017,407016,506016,506017,507017,507016
727,407001,407002,408002,408001,507001,507002,508002,508001
728,407002,407003,408003,408002,507002,507003,508003,508002
729,407003,407004,408004,408003,507003,507004,508004,508003
730,407014,407015,408015,408014,507014,507015,508015,508014
731,407015,407016,408016,408015,507015,507016,508016,508015
732,407016,407017,408017,408016,507016,507017,508017,508016
733,408001,408002,409002,409001,508001,508002,509002,509001
734,408002,408003,409003,409002,508002,508003,509003,509002
735,408003,408004,409004,409003,508003,508004,509004,509003
736,408014,408015,409015,409014,508014,508015,509015,509014
737,408015,408016,409016,409015,508015,508016,509016,509015
738,408016,408017,409017,409016,508016,508017,509017,509016
739,409001,409002,410002,410001,509001,509002,510002,510001
740,409002,409003,410003,410002,509002,509003,510003,510002
741,409003,409004,410004,410003,509003,509004,510004,510003
742,409014,409015,410015,410014,509014,509015,510015,510014
743,409015,409016,410016,410015,509015,509016,510016,510015
744,409016,409017,410017,410016,509016,509017,510017,510016
745,410001,410002,411002,411001,510001,510002,511002,511001
746,410002,410003,411003,411002,510002,510003,511003,511002
747,410003,410004,411004,411003,510003,510004,511004,511003
748,410014,410015,411015,411014,510014,510015,511015,511014
749,410015,410016,411016,411015,510015,510016,511016,511015
750,410016,410017,411017,411016,510016,510017,511017,511016
751,411001,411002,412002,412001,511001,511002,512002,512001
752,411002,411003,412003,412002,511002,511003,512003,512002
753,411003,411004,412004,412003,511003,511004,512004,512003
754,411004,411005,412005,412004,511004,511005,512005,512004
755,411013,411014,412014,412013,511013,511014,512014,512013
756,411014,411015,412015,412014,511014,511015,512015,512014
757,411015,411016,412016,412015,511015,511016,512016,512015
758,411016,411017,412017,412016,511016,511017,512017,512016
759,412001,412002,413002,413001,512001,512002,513002,513001
760,412002,412003,413003,413002,512002,512003,513003,513002
761,412003,412004,413004,413003,512003,512004,513004,513003
762,412004,412005,413005,413004,512004,512005,513005,513004
763,412005,412006,413006,413005,512005,512006,513006,513005
764,412012,412013,413013,413012,512012,512013,513013,513012
765,412013,412014,413014,413013,512013,512014,513014,513013
766,412014,412015,413015,413014,512014,512015,513015,513014
767,412015,412016,413016,413015,512015,512016,513016,513015
768,412016,412017,413017,413016,512016,512017,513017,513016
769,413001,413002,414002,414001,513001,513002,514002,514001
770,413002,413003,414003,414002,513002,513003,514003,514002
771,413003,413004,414004,414003,513003,513004,514004,514003
772,413004,413005,414005,414004,513004,513005,514005,514004
773,413005,413006,414006,414005,513005,513006,514006,514005
774,413006,413007,414007,414006,513006,513007,514007,514006
775,413007,413008,414008,414007,513007,513008,514008,514007
776,413008,413009,414009,414008,513008,513009,514009,514008
777,413009,413010,414010,414009,513009,513010,514010,514009
778,413010,413011,414011,414010,513010,513011,514011,514010
779,413011,413012,414012,414011,513011,513012,514012,514011
780,413012,413013,414013,414012,513012,513013,514013,514012
781,413013,413014,414014,414013,513013,513014,514014,514013
782,413014,413015,414015,414014,513014,513015,514015,514014
783,413015,413016,414016,414015,513015,513016,514016,514015
784,413016,413017,414017,414016,513016,513017,514017,514016
785,414001,414002,415002,415001,514001,514002,515002,515001
786,414002,414003,415003,415002,514002,514003,515003,515002
787,414003,414004,415004,415003,514003,514004,515004,515003
788,414004,414005,415005,415004,514004,514005,515005,515004
789,414005,414006,415006,415005,514005,514006,515006,515005
790,414006,414007,415007,415006,514006,514007,515007,515006
791,414007,414008,415008,415007,514007,514008,515008,515007
792,414008,414009,415009,415008,514008,514009,515009,515008
793,414009,414010,415010,415009,514009,514010,515010,515009
794,414010,414011,415011,415010,514010,514011,515011,515010
795,414011,414012,415012,415011,514011,514012,515012,515011
796,414012,414013,415013,415012,514012,514013,515013,515012
797,414013,414014,415014,415013,514013,514014,515014,515013
798,414014,414015,415015,415014,514014,514015,515015,515014
799,414015,414016,415016,415015,514015,514016,515016,515015
800,414016,414017,415017,415016,514016,514017,515017,515016
801,415001,415002,416002,416001,515001,515002,516002,516001
802,415002,415003,416003,416002,515002,515003,516003,516002
803,415003,415004,416004,416003,515003,515004,516004,516003
804,415004,415005,416005,416004,515004,515005,516005,516004
805,415005,415006,416006,416005,515005,515006,516006,516005
806,415006,415007,416007,416006,515006,515007,516007,516006
807,415007,415008,416008,416007,515007,515008,516008,516007
808,415008,415009,416009,416008,515008,515009,516009,516008
809,415009,415010,416010,416009,515009,515010,516010,516009
810,415010,415011,416011,416010,515010,515011,516011,516010
811,415011,415012,416012,416011,515011,515012,516012,516011
812,415012,415013,416013,416012,515012,515013,516013,516012
813,415013,415014,416014,416013,515013,515014,516014,516013
814,415014,415015,416015,416014,515014,515015,516015,516014
815,415015,415016,416016,416015,515015,515016,516016,516015
816,415016,415017,416017,416016,515016,515017,516017,516016
817,500001,500002,501002,501001,600001,600002,601002,601001
818,500002,500003,501003,501002,600002,600003,601003,601002
819,500003,500004,501004,501003,600003,600004,601004,601003
820,500004,500005,501005,501004,600004,600005,601005,601004
821,500005,500006,501006,501005,600005,600006,601006,601005
822,500006,500007,501007,501006,600006,600007,601007,601006
823,500007,500008,501008,501007,600007,600008,601008,601007
824,500008,500009,501009,501008,600008,600009,601009,601008
825,500009,500010,501010,501009,600009,600010,601010,601009
826,500010,500011,501011,501010,600010,600011,601011,601010
827,500011,500012,501012,501011,600011,600012,601012,601011
828,500012,500013,501013,501012,600012,600013,601013,601012
829,500013,500014,501014,501013,600013,600014,601014,601013
830,500014,500015,501015,501014,600014,600015,601015,601014
831,500015,500016,501016,501015,600015,600016,601016,601015
832,500016,500017,501017,501016,600016,600017,601017,601016
833,501001,501002,502002,502001,601001,601002,602002,602001
834,501002,501003,502003,502002,601002,601003,602003,602002
835,501003,501004,502004,502003,601003,601004,602004,602003
836,501004,501005,502005,502004,601004,601005,602005,602004
837,501005,501006,502006,502005,601005,601006,602006,602005
838,501006,501007,502007,502006,601006,601007,602007,602006
839,501007,501008,502008,502007,601007,601008,602008,602007
840,501008,501009,502009,502008,601008,601009,602009,602008
841,501009,501010,502010,502009,601009,601010,602010,602009
842,501010,501011,502011,502010,601010,601011,602011,602010
843,501011,501012,502012,502011,601011,601012,602012,602011
844,501012,501013,502013,502012,601012,601013,602013,602012
845,501013,501014,502014,502013,601013,601014,602014,602013
846,501014,501015,502015,502014,601014,601015,602015,602014
847,501015,501016,502016,502015,601015,601016,602016,602015
848,501016,501017,502017,502016,601016,601017,602017,602016
849,502001,502002,503002,503001,602001,602002,603002,603001
850,502002,502003,503003,503002,602002,602003,603003,603002
851,502003,502004,503004,503003,602003,602004,603004,603003
852,502004,502005,503005,503004,602004,602005,603005,603004
853,502005,502006,503006,503005,602005,602006,603006,603005
854,502006,502007,503007,503006,602006,602007,603007,603006
855,502007,502008,503008,503007,602007,602008,603008,603007
856,502008,502009,503009,503008,602008,602009,603009,603008
857,502009,502010,503010,503009,602009,602010,603010,603009
858,502010,502011,503011,503010,602010,602011,603011,603010
859,502011,502012,503012,503011,602011,602012,603012,603011
860,502012,502013,503013,503012,602012,602013,603013,603012
861,502013,502014,503014,503013,602013,602014,603014,603013
862,502014,502015,503015,503014,602014,602015,603015,603014
863,502015,502016,503016,503015,602015,602016,603016,603015
864,502016,502017,503017,503016,602016,602017,603017,603016
865,503001,503002,504002,504001,603001,603002,604002,604001
866,503002,503003,504003,504002,603002,603003,604003,604002
867,503003,503004,504004,504003,603003,603004,604004,604003
868,503004,503005,504005,504004,603004,603005,604005,604004
869,503005,503006,504006,504005,603005,603006,604006,604005
870,503006,503007,504007,504006,603006,603007,604007,604006
871,503007,503008,504008,504007,603007,603008,604008,604007
872,503008,503009,504009,504008,603008,603009,604009,604008
873,503009,503010,504010,504009,603009,603010,604010,604009
874,503010,503011,504011,504010,603010,603011,604011,604010
875,503011,503012,504012,504011,603011,603012,604012,604011
876,503012,503013,504013,504012,603012,603013,604013,604012
877,503013,503014,504014,504013,603013,603014,604014,604013
878,503014,503015,504015,504014,603014,603015,604015,604014
879,503015,503016,504016,504015,603015,603016,604016,604015
880,503016,503017,504017,504016,603016,603017,604017,604016
881,504001,504002,505002,505001,604001,604002,605002,605001
882,504002,504003,505003,505002,604002,604003,605003,605002
883,504003,504004,505004,505003,604003,604004,605004,605003
884,504004,504005,505005,505004,604004,604005,605005,605004
885,504005,504006,505006,505005,604005,604006,605006,605005
886,504006,504007,505007,505006,604006,604007,605007,605006
887,504007,504008,505008,505007,604007,604008,605008,605007
888,504008,504009,505009,505008,604008,604009,605009,605008
889,504009,504010,505010,505009,604009,604010,605010,605009
890,504010,504011,505011,505010,604010,604011,605011,605010
891,504011,504012,505012,505011,604011,604012,605012,605011
892,504012,504013,505013,505012,604012,604013,605013,605012
893,504013,504014,505014,505013,604013,604014,605014,605013
894,504014,504015,505015,505014,604014,604015,605015,605014
895,504015,504016,505016,505015,604015,604016,605016,605015
896,504016,504017,505017,505016,604016,604017,605017,605016
897,505001,505002,506002,506001,605001,605002,606002,606001
898,505002,505003,506003,506002,605002,605003,606003,606002
899,505003,505004,506004,506003,605003,605004,606004,606003
900,505004,505005,506005,506004,605004,605005,606005,606004
901,505005,505006,506006,506005,605005,605006,606006,606005
902,505006,505007,506007,506006,605006,605007,606007,606006
903,505007,505008,506008,506007,605007,605008,606008,606007
904,505008,505009,506009,506008,605008,605009,606009,606008
905,505009,505010,506010,506009,605009,605010,606010,606009
906,505010,505011,506011,506010,605010,605011,606011,606010
907,505011,505012,506012,506011,605011,605012,606012,606011
908,505012,505013,506013,506012,605012,605013,606013,606012
909,505013,505014,506014,506013,605013,605014,606014,606013
910,505014,505015,506015,506014,605014,605015,606015,606014
911,505015,505016,506016,506015,605015,605016,606016,606015
912,505016,505017,506017,506016,605016,605017,606017,606016
913,506001,506002,507002,507001,606001,606002,607002,607001
914,506002,506003,507003,507002,606002,606003,607003,607002
915,506003,506004,507004,507003,606003,606004,607004,607003
916,506004,506005,507005,507004,606004,606005,607005,607004
917,506005,506006,507006,507005,606005,606006,607006,607005
918,506006,506007,507007,507006,606006,606007,607007,607006
919,506007,506008,507008,507007,606007,606008,607008,607007
920,506008,506009,507009,507008,606008,606009,607009,607008
921,506009,506010,507010,507009,606009,606010,607010,607009
922,506010,506011,507011,507010,606010,606011,607011,607010
923,506011,506012,507012,507011,606011,606012,607012,607011
924,506012,506013,507013,507012,606012,606013,607013,607012
925,506013,506014,507014,507013,606013,606014,607014,607013
926,506014,506015,507015,507014,606014,606015,607015,607014
927,506015,506016,507016,507015,606015,606016,607016,607015
928,506016,506017,507017,507016,606016,606017,607017,607016
929,507001,507002,508002,508001,607001,607002,608002,608001
930,507002,507003,508003,508002,607002,607003,608003,608002
931,507003,507004,508004,508003,607003,607004,608004,608003
932,507004,507005,508005,508004,607004,607005,608005,608004
933,507005,507006,508006,508005,607005,607006,608006,608005
934,507006,507007,508007,508006,607006,607007,608007,608006
935,507007,507008,508008,508007,607007,607008,608008,608007
936,507008,507009,508009,508008,607008,607009,608009,608008
937,507009,507010,508010,508009,607009,607010,608010,608009
938,507010,507011,508011,508010,607010,607011,608011,608010
939,507011,507012,508012,508011,607011,607012,608012,608011
940,507012,507013,508013,508012,607012,607013,608013,608012
941,507013,507014,508014,508013,607013,607014,608014,608013
942,507014,507015,508015,508014,607014,607015,608015,608014
943,507015,507016,508016,508015,607015,607016,608016,608015
944,507016,507017,508017,508016,607016,607017,608017,608016
945,508001,508002,509002,509001,608001,608002,609002,609001
946,508002,508003,509003,509002,608002,608003,609003,609002
947,508003,508004,509004,509003,608003,608004,609004,609003
948,508004,508005,509005,509004,608004,608005,609005,609004
949,508005,508006,509006,509005,608005,608006,609006,609005
950,508006,508007,509007,509006,608006,608007,609007,609006
951,508007,508008,509008,509007,608007,608008,609008,609007
952,508008,508009,509009,509008,608008,608009,609009,609008
953,508009,508010,509010,509009,608009,608010,609010,609009
954,508010,508011,509011,509010,608010,608011,609011,609010
955,508011,508012,509012,509011,608011,608012,609012,609011
956,508012,508013,509013,509012,608012,608013,609013,609012
957,508013,508014,509014,509013,608013,608014,609014,609013
958,508014,508015,509015,509014,608014,608015,609015,609014
959,508015,508016,509016,509015,608015,608016,609016,609015
960,508016,508017,509017,509016,608016,608017,609017,609016
961,509001,509002,510002,510001,609001,609002,610002,610001
962,509002,509003,510003,510002,609002,609003,610003,610002
963,509003,509004,510004,510003,609003,609004,610004,610003
964,509004,509005,510005,510004,609004,609005,610005,610004
965,509005,509006,510006,510005,609005,609006,610006,610005
966,509006,509007,510007,510006,609006,609007,610007,610006
967,509007,509008,510008,510007,609007,609008,610008,610007
968,509008,509009,510009,510008,609008,609009,610009,610008
969,509009,509010,510010,510009,609009,609010,610010,610009
970,509010,509011,510011,510010,609010,609011,610011,610010
971,509011,509012,510012,510011,609011,609012,610012,610011
972,509012,509013,510013,510012,609012,609013,610013,610012
973,509013,509014,510014,510013,609013,609014,610014,610013
974,509014,509015,510015,510014,609014,609015,610015,610014
975,509015,509016,510016,510015,609015,609016,610016,610015
976,509016,509017,510017,510016,609016,609017,610017,610016
977,510001,510002,511002,511001,610001,610002,611002,611001
978,510002,510003,511003,511002,610002,610003,611003,611002
979,510003,510004,511004,511003,610003,610004,611004,611003
980,510004,510005,511005,511004,610004,610005,611005,611004
981,510005,510006,511006,511005,610005,610006,611006,611005
982,510006,510007,511007,511006,610006,610007,611007,611006
983,510007,510008,511008,511007,610007,610008,611008,611007
984,510008,510009,511009,511008,610008,610009,611009,611008
985,510009,510010,511010,511009,610009,610010,611010,611009
986,510010,510011,511011,511010,610010,610011,611011,611010
987,510011,510012,511012,511011,610011,610012,611012,611011
988,510012,510013,511013,511012,610012,610013,611013,611012
989,510013,510014,511014,511013,610013,610014,611014,611013
990,510014,510015,511015,511014,610014,610015,611015,611014
991,510015,510016,511016,511015,610015,610016,611016,611015
992,510016,510017,511017,511016,610016,610017,611017,611016
993,511001,511002,512002,512001,611001,611002,612002,612001
994,511002,511003,512003,512002,611002,611003,612003,612002
995,511003,511004,512004,512003,611003,611004,612004,612003
996,511004,511005,512005,512004,611004,611005,612005,612004
997,511005,511006,512006,512005,611005,611006,612006,612005
998,511006,511007,512007,512006,611006,611007,612007,612006
999,511007,511008,512008,512007,611007,611008,612008,612007
1000,511008,511009,512009,512008,611008,611009,612009,612008
1001,511009,511010,512010,512009,611009,611010,612010,612009
1002,511010,511011,512011,512010,611010,611011,612011,612010
1003,511011,511012,512012,512011,611011,611012,612012,612011
1004,511012,511013,512013,512012,611012,611013,612013,612012
1005,511013,511014,512014,512013,611013,611014,612014,612013
1006,511014,511015,512015,512014,611014,611015,612015,612014
1007,511015,511016,512016,512015,611015,611016,612016,612015
1008,511016,511017,512017,512016,611016,611017,612017,612016
1009,512001,512002,513002,513001,612001,612002,613002,613001
1010,512002,512003,513003,513002,612002,612003,613003,613002
1011,512003,512004,513004,513003,612003,612004,613004,613003
1012,512004,512005,513005,513004,612004,612005,613005,613004
1013,512005,512006,513006,513005,612005,612006,613006,613005
1014,512006,512007,513007,513006,612006,612007,613007,613006
1015,512007,512008,513008,513007,612007,612008,613008,613007
1016,512008,512009,513009,513008,612008,612009,613009,613008
1017,512009,512010,513010,513009,612009,612010,613010,613009
1018,512010,512011,513011,513010,612010,612011,613011,613010
1019,512011,512012,513012,513011,612011,612012,613012,613011
1020,512012,512013,513013,513012,612012,612013,613013,613012
1021,512013,512014,513014,513013,612013,612014,613014,613013
1022,512014,512015,513015,513014,612014,612015,613015,613014
1023,512015,512016,513016,513015,612015,612016,613016,613015
1024,512016,512017,513017,513016,612016,612017,613017,613016
1025,513001,513002,514002,514001,613001,613002,614002,614001
1026,513002,513003,514003,514002,613002,613003,614003,614002
1027,513003,513004,514004,514003,613003,613004,614004,614003
1028,513004,513005,514005,514004,613004,613005,614005,614004
1029,513005,513006,514006,514005,613005,613006,614006,614005
1030,513006,513007,514007,514006,613006,613007,614007,614006
1031,513007,513008,514008,514007,613007,613008,614008,614007
1032,513008,513009,514009,514008,613008,613009,614009,614008
1033,513009,513010,514010,514009,613009,613010,614010,614009
1034,513010,513011,514011,514010,613010,613011,614011,614010
1035,513011,513012,514012,514011,613011,613012,614012,614011
1036,513012,513013,514013,514012,613012,613013,614013,614012
1037,513013,513014,514014,514013,613013,613014,614014,614013
1038,513014,513015,514015,514014,613014,613015,614015,614014
1039,513015,513016,514016,514015,613015,613016,614016,614015
1040,513016,513017,514017,514016,613016,613017,614017,614016
1041,514001,514002,515002,515001,614001,614002,615002,615001
1042,514002,514003,515003,515002,614002,614003,615003,615002
1043,514003,514004,515004,515003,614003,614004,615004,615003
1044,514004,514005,515005,515004,614004,614005,615005,615004
1045,514005,514006,515006,515005,614005,614006,615006,615005
1046,514006,514007,515007,515006,614006,614007,615007,615006
1047,514007,514008,515008,515007,614007,614008,615008,615007
1048,514008,514009,515009,515008,614008,614009,615009,615008
1049,514009,514010,515010,515009,614009,614010,615010,615009
1050,514010,514011,515011,515010,614010,614011,615011,615010
1051,514011,514012,515012,515011,614011,614012,615012,615011
1052,514012,514013,515013,515012,614012,614013,615013,615012
1053,514013,514014,515014,515013,614013,614014,615014,615013
1054,514014,514015,515015,515014,614014,614015,615015,615014
1055,514015,514016,515016,515015,614015,614016,615016,615015
1056,514016,514017,515017,515016,614016,614017,615017,615016
1057,515001,515002,516002,516001,615001,615002,616002,616001
1058,515002,515003,516003,516002,615002,615003,616003,616002
1059,515003,515004,516004,516003,615003,615004,616004,616003
1060,515004,515005,516005,516004,615004,615005,616005,616004
1061,515005,515006,516006,516005,615005,615006,616006,616005
1062,515006,515007,516007,516006,615006,615007,616007,616006
1063,515007,515008,516008,516007,615007,615008,616008,616007
1064,515008,515009,516009,516008,615008,615009,616009,616008
1065,515009,515010,516010,516009,615009,615010,616010,616009
1066,515010,515011,516011,516010,615010,615011,616011,616010
1067,515011,515012,516012,516011,615011,615012,616012,616011
1068,515012,515013,516013,516012,615012,615013,616013,616012
1069,515013,515014,516014,516013,615013,615014,616014,616013
1070,515014,515015,516015,516014,615014,615015,616015,616014
1071,515015,515016,516016,516015,615015,615016,616016,616015
1072,515016,515017,516017,516016,615016,615017,616017,616016
1073,701007,701008,702008,702007,801007,801008,802008,802007
1074,701008,701009,702009,702008,801008,801009,802009,802008
1075,701009,701010,702010,702009,801009,801010,802010,802009
1076,701010,701011,702011,702010,801010,801011,802011,802010
1077,702005,702006,703006,703005,802005,802006,803006,803005
1078,702006,702007,703007,703006,802006,802007,803007,803006
1079,702007,702008,703008,703007,802007,802008,803008,803007
1080,702008,702009,703009,703008,802008,802009,803009,803008
1081,702009,702010,703010,703009,802009,802010,803010,803009
1082,702010,702011,703011,703010,802010,802011,803011,803010
1083,702011,702012,703012,703011,802011,802012,803012,803011
1084,702012,702013,703013,703012,802012,802013,803013,803012
1085,703004,703005,704005,704004,803004,803005,804005,804004
1086,703005,703006,704006,704005,803005,803006,804006,804005
1087,703006,703007,704007,704006,803006,803007,804007,804006
1088,703007,703008,704008,704007,803007,803008,804008,804007
1089,703008,703009,704009,704008,803008,803009,804009,804008
1090,703009,703010,704010,704009,803009,803010,804010,804009
1091,703010,703011,704011,704010,803010,803011,804011,804010
1092,703011,703012,704012,704011,803011,803012,804012,804011
1093,703012,703013,704013,704012,803012,803013,804013,804012
1094,703013,703014,704014,704013,803013,803014,804014,804013
1095,704003,704004,705004,705003,804003,804004,805004,805003
1096,704004,704005,705005,705004,804004,804005,805005,805004
1097,704005,704006,705006,705005,804005,804006,805006,805005
1098,704006,704007,705007,705006,804006,804007,805007,805006
1099,704007,704008,705008,705007,804007,804008,805008,805007
1100,704008,704009,705009,705008,804008,804009,805009,805008
1101,704009,704010,705010,705009,804009,804010,805010,805009
1102,704010,704011,705011,705010,804010,804011,805011,805010
1103,704011,704012,705012,705011,804011,804012,805012,805011
1104,704012,704013,705013,705012,804012,804013,805013,805012
1105,704013,704014,705014,705013,804013,804014,805014,805013
1106,704014,704015,705015,705014,804014,804015,805015,805014
1107,705003,705004,706004,706003,805003,805004,806004,806003
1108,705004,705005,706005,706004,805004,805005,806005,806004
1109,705005,705006,706006,706005,805005,805006,806006,806005
1110,705006,705007,706007,706006,805006,805007,806007,806006
1111,705007,705008,706008,706007,805007,805008,806008,806007
1112,705008,705009,706009,706008,805008,805009,806009,806008
1113,705009,705010,706010,706009,805009,805010,806010,806009
1114,705010,705011,706011,706010,805010,805011,806011,806010
1115,705011,705012,706012,706011,805011,805012,806012,806011
1116,705012,705013,706013,706012,805012,805013,806013,806012
1117,705013,705014,706014,706013,805013,805014,806014,806013
1118,705014,705015,706015,706014,805014,805015,806015,806014
1119,706002,706003,707003,707002,806002,806003,807003,807002
1120,706003,706004,707004,707003,806003,806004,807004,807003
1121,706004,706005,707005,707004,806004,806005,807005,807004
1122,706005,706006,707006,707005,806005,806006,807006,807005
1123,706006,706007,707007,707006,806006,806007,807007,807006
1124,706011,706012,707012,707011,806011,806012,807012,807011
1125,706012,706013,707013,707012,806012,806013,807013,807012
1126,706013,706014,707014,707013,806013,806014,807014,807013
1127,706014,706015,707015,707014,806014,806015,807015,807014
1128,706015,706016,707016,707015,806015,806016,807016,807015
1129,707002,707003,708003,708002,807002,807003,808003,808002
1130,707003,707004,708004,708003,807003,807004,808004,808003
1131,707004,707005,708005,708004,807004,807005,808005,808004
1132,707005,707006,708006,708005,807005,807006,808006,808005
1133,707006,707007,708007,708006,807006,807007,808007,808006
1134,707011,707012,708012,708011,807011,807012,808012,808011
1135,707012,707013,708013,708012,807012,807013,808013,808012
1136,707013,707014,708014,708013,807013,807014,808014,808013
1137,707014,707015,708015,708014,807014,807015,808015,808014
1138,707015,707016,708016,708015,807015,807016,808016,808015
1139,708002,708003,709003,709002,808002,808003,809003,809002
1140,708003,708004,709004,709003,808003,808004,809004,809003
1141,708004,708005,709005,709004,808004,808005,809005,809004
1142,708005,708006,709006,709005,808005,808006,809006,809005
1143,708006,708007,709007,709006,808006,808007,809007,809006
1144,708011,708012,709012,709011,808011,808012,809012,809011
1145,708012,708013,709013,709012,808012,808013,809013,809012
1146,708013,708014,709014,709013,808013,808014,809014,809013
1147,708014,708015,709015,709014,808014,808015,809015,809014
1148,708015,708016,709016,709015,808015,808016,809016,809015
1149,709002,709003,710003,710002,809002,809003,810003,810002
1150,709003,709004,710004,710003,809003,809004,810004,810003
1151,709004,709005,710005,710004,809004,809005,810005,810004
1152,709005,709006,710006,710005,809005,809006,810006,810005
1153,709006,709007,710007,710006,809006,809007,810007,810006
1154,709011,709012,710012,710011,809011,809012,810012,810011
1155,709012,709013,710013,710012,809012,809013,810013,810012
1156,709013,709014,710014,710013,809013,809014,810014,810013
1157,709014,709015,710015,710014,809014,809015,810015,810014
1158,709015,709016,710016,710015,809015,809016,810016,810015
1159,710003,710004,711004,711003,810003,810004,811004,811003
1160,710004,710005,711005,711004,810004,810005,811005,811004
1161,710005,710006,711006,711005,810005,810006,811006,811005
1162,710006,710007,711007,711006,810006,810007,811007,811006
1163,710007,710008,711008,711007,810007,810008,811008,811007
1164,710008,710009,711009,711008,810008,810009,811009,811008
1165,710009,710010,711010,711009,810009,810010,811010,811009
1166,710010,710011,711011,711010,810010,810011,811011,811010
1167,710011,710012,711012,711011,810011,810012,811012,811011
1168,710012,710013,711013,711012,810012,810013,811013,811012
1169,710013,710014,711014,711013,810013,810014,811014,811013
1170,710014,710015,711015,711014,810014,810015,811015,811014
1171,711003,711004,712004,712003,811003,811004,812004,812003
1172,711004,711005,712005,712004,811004,811005,812005,812004
1173,711005,711006,712006,712005,811005,811006,812006,812005
1174,711006,711007,712007,712006,811006,811007,812007,812006
1175,711007,711008,712008,712007,811007,811008,812008,812007
1176,711008,711009,712009,712008,811008,811009,812009,812008
1177,711009,711010,712010,712009,811009,811010,812010,812009
1178,711010,711011,712011,712010,811010,811011,812011,812010
1179,711011,711012,712012,712011,811011,811012,812012,812011
1180,711012,711013,712013,712012,811012,811013,812013,812012
1181,711013,711014,712014,712013,811013,811014,812014,812013
1182,711014,711015,712015,712014,811014,811015,812015,812014
1183,712004,712005,713005,713004,812004,812005,813005,813004
1184,712005,712006,713006,713005,812005,812006,813006,813005
1185,712006,712007,713007,713006,812006,812007,813007,813006
1186,712007,712008,713008,713007,812007,812008,813008,813007
1187,712008,712009,713009,713008,812008,812009,813009,813008
1188,712009,712010,713010,713009,812009,812010,813010,813009
1189,712010,712011,713011,713010,812010,812011,813011,813010
1190,712011,712012,713012,713011,812011,812012,813012,813011
1191,712012,712013,713013,713012,812012,812013,813013,813012
1192,712013,712014,713014,713013,812013,812014,813014,813013
1193,713005,713006,714006,714005,813005,813006,814006,814005
1194,713006,713007,714007,714006,813006,813007,814007,814006
1195,713007,713008,714008,714007,813007,813008,814008,814007
1196,713008,713009,714009,714008,813008,813009,814009,814008
1197,713009,713010,714010,714009,813009,813010,814010,814009
1198,713010,713011,714011,714010,813010,813011,814011,814010
1199,713011,713012,714012,714011,813011,813012,814012,814011
1200,713012,713013,714013,714012,813012,813013,814013,814012
1201,714007,714008,715008,715007,814007,814008,815008,815007
1202,714008,714009,715009,715008,814008,814009,815009,815008
1203,714009,714010,715010,715009,814009,814010,815010,815009
1204,714010,714011,715011,715010,814010,814011,815011,815010
1205,801007,801008,802008,802007,901007,901008,902008,902007
1206,801008,801009,802009,802008,901008,901009,902009,902008
1207,801009,801010,802010,802009,901009,901010,902010,902009
1208,801010,801011,802011,802010,901010,901011,902011,902010
1209,802005,802006,803006,803005,902005,902006,903006,903005
1210,802006,802007,803007,803006,902006,902007,903007,903006
1211,802007,802008,803008,803007,902007,902008,903008,903007
1212,802008,802009,803009,803008,902008,902009,903009,903008
1213,802009,802010,803010,803009,902009,902010,903010,903009
1214,802010,802011,803011,803010,902010,902011,903011,903010
1215,802011,802012,803012,803011,902011,902012,903012,903011
1216,802012,802013,803013,803012,902012,902013,903013,903012
1217,803004,803005,804005,804004,903004,903005,904005,904004
1218,803005,803006,804006,804005,903005,903006,904006,904005
1219,803006,803007,804007,804006,903006,903007,904007,904006
1220,803007,803008,804008,804007,903007,903008,904008,904007
1221,803008,803009,804009,804008,903008,903009,904009,904008
1222,803009,803010,804010,804009,903009,903010,904010,904009
1223,803010,803011,804011,804010,903010,903011,904011,904010
1224,803011,803012,804012,804011,903011,903012,904012,904011
1225,803012,803013,804013,804012,903012,903013,904013,904012
1226,803013,803014,804014,804013,903013,903014,904014,904013
1227,804003,804004,805004,805003,904003,904004,905004,905003
1228,804004,804005,805005,805004,904004,904005,905005,905004
1229,804005,804006,805006,805005,904005,904006,905006,905005
1230,804006,804007,805007,805006,904006,904007,905007,905006
1231,804007,804008,805008,805007,904007,904008,905008,905007
1232,804008,804009,805009,805008,904008,904009,905009,905008
1233,804009,804010,805010,805009,904009,904010,905010,905009
1234,804010,804011,805011,805010,904010,904011,905011,905010
1235,804011,804012,805012,805011,904011,904012,905012,905011
1236,804012,804013,805013,805012,904012,904013,905013,905012
1237,804013,804014,805014,805013,904013,904014,905014,905013
1238,804014,804015,805015,805014,904014,904015,905015,905014
1239,805003,805004,806004,806003,905003,905004,906004,906003
1240,805004,805005,806005,806004,905004,905005,906005,906004
1241,805005,805006,806006,806005,905005,905006,906006,906005
1242,805006,805007,806007,806006,905006,905007,906007,906006
1243,805007,805008,806008,806007,905007,905008,906008,906007
1244,805008,805009,806009,806008,905008,905009,906009,906008
1245,805009,805010,806010,806009,905009,905010,906010,906009
1246,805010,805011,806011,806010,905010,905011,906011,906010
1247,805011,805012,806012,806011,905011,905012,906012,906011
1248,805012,805013,806013,806012,905012,905013,906013,906012
1249,805013,805014,806014,806013,905013,905014,906014,906013
1250,805014,805015,806015,806014,905014,905015,906015,906014
1251,806002,806003,807003,807002,906002,906003,907003,907002
1252,806003,806004,807004,807003,906003,906004,907004,907003
1253,806004,806005,807005,807004,906004,906005,907005,907004
1254,806005,806006,807006,807005,906005,906006,907006,907005
1255,806006,806007,807007,807006,906006,906007,907007,907006
1256,806011,806012,807012,807011,906011,906012,907012,907011
1257,806012,806013,807013,807012,906012,906013,907013,907012
1258,806013,806014,807014,807013,906013,906014,907014,907013
1259,806014,806015,807015,807014,906014,906015,907015,907014
1260,806015,806016,807016,807015,906015,906016,907016,907015
1261,807002,807003,808003,808002,907002,907003,908003,908002
1262,807003,807004,808004,808003,907003,907004,908004,908003
1263,807004,807005,808005,808004,907004,907005,908005,908004
1264,807005,807006,808006,808005,907005,907006,908006,908005
1265,807006,807007,808007,808006,907006,907007,908007,908006
1266,807011,807012,808012,808011,907011,907012,908012,908011
1267,807012,807013,808013,808012,907012,907013,908013,908012
1268,807013,807014,808014,808013,907013,907014,908014,908013
1269,807014,807015,808015,808014,907014,907015,908015,908014
1270,807015,807016,808016,808015,907015,907016,908016,908015
1271,808002,808003,809003,809002,908002,908003,909003,909002
1272,808003,808004,809004,809003,908003,908004,909004,909003
1273,808004,808005,809005,809004,908004,908005,909005,909004
1274,808005,808006,809006,809005,908005,908006,909006,909005
1275,808006,808007,809007,809006,908006,908007,909007,909006
1276,808011,808012,809012,809011,908011,908012,909012,909011
1277,808012,808013,809013,809012,908012,908013,909013,909012
1278,808013,808014,809014,809013,908013,908014,909014,909013
1279,808014,808015,809015,809014,908014,908015,909015,909014
1280,808015,808016,809016,809015,908015,908016,909016,909015
1281,809002,809003,810003,810002,909002,909003,910003,910002
1282,809003,809004,810004,810003,909003,909004,910004,910003
1283,809004,809005,810005,810004,909004,909005,910005,910004
1284,809005,809006,810006,810005,909005,909006,910006,910005
1285,809006,809007,810007,810006,909006,909007,910007,910006
1286,809011,809012,810012,810011,909011,909012,910012,910011
1287,809012,809013,810013,810012,909012,909013,910013,910012
1288,809013,809014,810014,810013,909013,909014,910014,910013
1289,809014,809015,810015,810014,909014,909015,910015,910014
1290,809015,809016,810016,810015,909015,909016,910016,910015
1291,810003,810004,811004,811003,910003,910004,911004,911003
1292,810004,810005,811005,811004,910004,910005,911005,911004
1293,810005,810006,811006,811005,910005,910006,911006,911005
1294,810006,810007,811007,811006,910006,910007,911007,911006
1295,810007,810008,811008,811007,910007,910008,911008,911007
1296,810008,810009,811009,811008,910008,910009,911009,911008
1297,810009,810010,811010,811009,910009,910010,911010,911009
1298,810010,810011,811011,811010,910010,910011,911011,911010
1299,810011,810012,811012,811011,910011,910012,911012,911011
1300,810012,810013,811013,811012,910012,910013,911013,911012
1301,810013,810014,811014,811013,910013,910014,911014,911013
1302,810014,810015,811015,811014,910014,910015,911015,911014
1303,811003,811004,812004,812003,911003,911004,912004,912003
1304,811004,811005,812005,812004,911004,911005,912005,912004
1305,811005,811006,812006,812005,911005,911006,912006,912005
1306,811006,811007,812007,812006,911006,911007,912007,912006
1307,811007,811008,812008,812007,911007,911008,912008,912007
1308,811008,811009,812009,812008,911008,911009,912009,912008
1309,811009,811010,812010,812009,911009,911010,912010,912009
1310,811010,811011,812011,812010,911010,911011,912011,912010
1311,811011,811012,812012,812011,911011,911012,912012,912011
1312,811012,811013,812013,812012,911012,911013,912013,912012
1313,811013,811014,812014,812013,911013,911014,912014,912013
1314,811014,811015,812015,812014,911014,911015,912015,912014
1315,812004,812005,813005,813004,912004,912005,913005,913004
1316,812005,812006,813006,813005,912005,912006,913006,913005
1317,812006,812007,813007,813006,912006,912007,913007,913006
1318,812007,812008,813008,813007,912007,912008,913008,913007
1319,812008,812009,813009,813008,912008,912009,913009,913008
1320,812009,812010,813010,813009,912009,912010,913010,913009
1321,812010,812011,813011,813010,912010,912011,913011,913010
1322,812011,812012,813012,813011,912011,912012,913012,913011
1323,812012,812013,813013,813012,912012,912013,913013,913012
1324,812013,812014,813014,813013,912013,912014,913014,913013
1325,813005,813006,814006,814005,913005,913006,914006,914005
1326,813006,813007,814007,814006,913006,913007,914007,914006
1327,813007,813008,814008,814007,913007,913008,914008,914007
1328,813008,813009,814009,814008,913008,913009,914009,914008
1329,813009,813010,814010,814009,913009,913010,914010,914009
1330,813010,813011,814011,814010,913010,913011,914011,914010
1331,813011,813012,814012,814011,913011,913012,914012,914011
1332,813012,813013,814013,814012,913012,913013,914013,914012
1333,814007,814008,815008,815007,914007,914008,915008,915007
1334,814008,814009,815009,815008,914008,914009,915009,915008
1335,814009,814010,815010,815009,914009,914010,915010,915009
1336,814010,814011,815011,815010,914010,914011,915011,915010
*ELSET,ELSET=EBRIDGE
1,2,3,4,5,6,7,8,9,10,11,12,13,14,15,16
17,18,19,20,21,22,23,24,25,26,27,28,29,30,31,32
33,34,35,36,37,38,39,40,41,42,43,44,45,46,47,48
49,50,51,52,53,54,55,56,57,58,59,60,61,62,63,64
65,66,67,68,69,70,71,72,73,74,75,76,77,78,79,80
81,82,83,84,85,86,87,88,89,90,91,92,93,94,95,96
97,98,99,100,101,102,103,104,105,106,107,108,109,110,111,112
113,114,115,116,117,118,119,120,121,122,123,124,125,126,127,128
129,130,131,132,133,134,135,136,137,138,139,140,141,142,143,144
145,146,147,148,149,150,151,152,153,154,155,156,157,158,159,160
161,162,163,164,165,166,167,168,169,170,171,172,173,174,175,176
177,178,179,180,181,182,183,184,185,186,187,188,189,190,191,192
193,194,195,196,197,198,199,200,201,202,203,204,205,206,207,208
209,210,211,212,213,214,215,216,217,218,219,220,221,222,223,224
225,226,227,228,229,230,231,232,233,234,235,236,237,238,239,240
241,242,243,244,245,246,247,248,249,250,251,252,253,254,255,256
257,258,259,260,261,262,263,264,265,266,267,268,269,270,271,272
273,274,275,276,277,278,279,280,281,282,283,284,285,286,287,288
289,290,291,292,293,294,295,296,297,298,299,300,301,302,303,304
305,306,307,308,309,310,311,312,313,314,315,316,317,318,319,320
321,322,323,324,325,326,327,328,329,330,331,332,333,334,335,336
337,338,339,340,341,342,343,344,345,346,347,348,349,350,351,352
353,354,355,356,357,358,359,360,361,362,363,364,365,366,367,368
369,370,371,372,373,374,375,376,377,378,379,380,381,382,383,384
385,386,387,388,389,390,391,392,393,394,395,396,397,398,399,400
401,402,403,404,405,406,407,408,409,410,411,412,413,414,415,416
417,418,419,420,421,422,423,424,425,426,427,428,429,430,431,432
433,434,435,436,437,438,439,440,441,442,443,444,445,446,447,448
449,450,451,452,453,454,455,456,457,458,459,460,461,462,463,464
465,466,467,468,469,470,471,472,473,474,475,476,477,478,479,480
*ELSET,ELSET=ESTAGEB
481,482,483,484,485,486,487,488,489,490,491,492,493,494,495,496
497,498,499,500,501,502,503,504,505,506,507,508,509,510,511,512
513,514,515,516,517,518,519,520,521,522,523,524,525,526,527,528
529,530,531,532,533,534,535,536,537,538,539,540,541,542,543,544
545,546,547,548,549,550,551,552,553,554,555,556,557,558,559,560
561,562,563,564,565,566,567,568,569,570,571,572,573,574,575,576
577,578,579,580,581,582,583,584,585,586,587,588,589,590,591,592
593,594,595,596,597,598,599,600,601,602,603,604,605,606,607,608
609,610,611,612,613,614,615,616,617,618,619,620,621,622,623,624
625,626,627,628,629,630,631,632,633,634,635,636,637,638,639,640
641,642,643,644,645,646,647,648,649,650,651,652,653,654,655,656
657,658,659,660,661,662,663,664,665,666,667,668,669,670,671,672
673,674,675,676,677,678,679,680,681,682,683,684,685,686,687,688
689,690,691,692,693,694,695,696,697,698,699,700,701,702,703,704
705,706,707,708,709,710,711,712,713,714,715,716,717,718,719,720
721,722,723,724,725,726,727,728,729,730,731,732,733,734,735,736
737,738,739,740,741,742,743,744,745,746,747,748,749,750,751,752
753,754,755,756,757,758,759,760,761,762,763,764,765,766,767,768
769,770,771,772,773,774,775,776,777,778,779,780,781,782,783,784
785,786,787,788,789,790,791,792,793,794,795,796,797,798,799,800
801,802,803,804,805,806,807,808,809,810,811,812,813,814,815,816
817,818,819,820,821,822,823,824,825,826,827,828,829,830,831,832
833,834,835,836,837,838,839,840,841,842,843,844,845,846,847,848
849,850,851,852,853,854,855,856,857,858,859,860,861,862,863,864
865,866,867,868,869,870,871,872,873,874,875,876,877,878,879,880
881,882,883,884,885,886,887,888,889,890,891,892,893,894,895,896
897,898,899,900,901,902,903,904,905,906,907,908,909,910,911,912
913,914,915,916,917,918,919,920,921,922,923,924,925,926,927,928
929,930,931,932,933,934,935,936,937,938,939,940,941,942,943,944
945,946,947,948,949,950,951,952,953,954,955,956,957,958,959,960
961,962,963,964,965,966,967,968,969,970,971,972,973,974,975,976
977,978,979,980,981,982,983,984,985,986,987,988,989,990,991,992
993,994,995,996,997,998,999,1000,1001,1002,1003,1004,1005,1006,1007,1008
1009,1010,1011,1012,1013,1014,1015,1016,1017,1018,1019,1020,1021,1022,1023,1024
1025,1026,1027,1028,1029,1030,1031,1032,1033,1034,1035,1036,1037,1038,1039,1040
1041,1042,1043,1044,1045,1046,1047,1048,1049,1050,1051,1052,1053,1054,1055,1056
1057,1058,1059,1060,1061,1062,1063,1064,1065,1066,1067,1068,1069,1070,1071,1072
*ELSET,ELSET=ESTAGEA
1073,1074,1075,1076,1077,1078,1079,1080,1081,1082,1083,1084,1085,1086,1087,1088
1089,1090,1091,1092,1093,1094,1095,1096,1097,1098,1099,1100,1101,1102,1103,1104
1105,1106,1107,1108,1109,1110,1111,1112,1113,1114,1115,1116,1117,1118,1119,1120
1121,1122,1123,1124,1125,1126,1127,1128,1129,1130,1131,1132,1133,1134,1135,1136
1137,1138,1139,1140,1141,1142,1143,1144,1145,1146,1147,1148,1149,1150,1151,1152
1153,1154,1155,1156,1157,1158,1159,1160,1161,1162,1163,1164,1165,1166,1167,1168
1169,1170,1171,1172,1173,1174,1175,1176,1177,1178,1179,1180,1181,1182,1183,1184
1185,1186,1187,1188,1189,1190,1191,1192,1193,1194,1195,1196,1197,1198,1199,1200
1201,1202,1203,1204,1205,1206,1207,1208,1209,1210,1211,1212,1213,1214,1215,1216
1217,1218,1219,1220,1221,1222,1223,1224,1225,1226,1227,1228,1229,1230,1231,1232
1233,1234,1235,1236,1237,1238,1239,1240,1241,1242,1243,1244,1245,1246,1247,1248
1249,1250,1251,1252,1253,1254,1255,1256,1257,1258,1259,1260,1261,1262,1263,1264
1265,1266,1267,1268,1269,1270,1271,1272,1273,1274,1275,1276,1277,1278,1279,1280
1281,1282,1283,1284,1285,1286,1287,1288,1289,1290,1291,1292,1293,1294,1295,1296
1297,1298,1299,1300,1301,1302,1303,1304,1305,1306,1307,1308,1309,1310,1311,1312
1313,1314,1315,1316,1317,1318,1319,1320,1321,1322,1323,1324,1325,1326,1327,1328
1329,1330,1331,1332,1333,1334,1335,1336
*ELSET,ELSET=EPROBES
463,1004,1321,115
*NSET,NSET=NFIXED
1,2,3,4,5,6,7,8,9,10,11,12,13,14,15,16
17,1001,1002,1003,1004,1005,1006,1007,1008,1009,1010,1011,1012,1013,1014,1015
1016,1017,2001,2002,2003,2004,2005,2006,2007,2008,2009,2010,2011,2012,2013,2014
2015,2016,2017,3001,3002,3003,3004,3005,3006,3007,3008,3009,3010,3011,3012,3013
3014,3015,3016,3017,4001,4002,4003,4004,4005,4006,4007,4008,4009,4010,4011,4012
4013,4014,4015,4016,4017,5001,5002,5003,5004,5005,5006,5007,5008,5009,5010,5011
5012,5013,5014,5015,5016,5017,6001,6002,6003,6004,6005,6006,6007,6008,6009,6010
6011,6012,6013,6014,6015,6016,6017,7001,7002,7003,7004,7005,7006,7007,7011,7012
7013,7014,7015,7016,7017,8001,8002,8003,8004,8005,8006,8007,8011,8012,8013,8014
8015,8016,8017,9001,9002,9003,9004,9005,9006,9007,9011,9012,9013,9014,9015,9016
9017,10001,10002,10003,10004,10005,10006,10007,10008,10009,10010,10011,10012,10013,10014,10015
10016,10017,11001,11002,11003,11004,11005,11006,11007,11008,11009,11010,11011,11012,11013,11014
11015,11016,11017,12001,12002,12003,12004,12005,12006,12007,12008,12009,12010,12011,12012,12013
12014,12015,12016,12017,13001,13002,13003,13004,13005,13006,13007,13008,13009,13010,13011,13012
13013,13014,13015,13016,13017,14001,14002,14003,14004,14005,14006,14007,14008,14009,14010,14011
14012,14013,14014,14015,14016,14017,15001,15002,15003,15004,15005,15006,15007,15008,15009,15010
15011,15012,15013,15014,15015,15016,15017,16001,16002,16003,16004,16005,16006,16007,16008,16009
16010,16011,16012,16013,16014,16015,16016,16017
*NSET,NSET=NRP
900000
*NSET,NSET=NS_M6_1
214016,215015,215016,215017,216016,314016,315015,315016,315017,316016
*NSET,NSET=NS_M6_2
200016,201015,201016,201017,202016,300016,301015,301016,301017,302016
*NSET,NSET=NS_M6_3
214002,215001,215002,215003,216002,314002,315001,315002,315003,316002
*NSET,NSET=NS_M6_4
200002,201001,201002,201003,202002,300002,301001,301002,301003,302002
*NSET,NSET=NS_M5_1
610014,610015,611014,611015,710014,710015,711014,711015
*NSET,NSET=NS_M5_2
613011,613012,614011,614012,713011,713012,714011,714012
*NSET,NSET=NS_M5_3
613006,613007,614006,614007,713006,713007,714006,714007
*NSET,NSET=NS_M5_4
610003,610004,611003,611004,710003,710004,711003,711004
*NSET,NSET=NS_M5_5
605003,605004,606003,606004,705003,705004,706003,706004
*NSET,NSET=NS_M5_6
602006,602007,603006,603007,702006,702007,703006,703007
*NSET,NSET=NS_M5_7
602011,602012,603011,603012,702011,702012,703011,703012
*NSET,NSET=NS_M5_8
605014,605015,606014,606015,705014,705015,706014,706015
*NSET,NSET=NS_ARM_SPIDER
903007,903008,904007,904008,906013,906014,907013,907014,909004,909005,910004,910005,912010,912011,913010,913011
*MATERIAL,NAME=AL6061_T6_CAND
*ELASTIC
68300.0,0.33
*DENSITY
2.700e-09
*SOLID SECTION,ELSET=EBRIDGE,MATERIAL=AL6061_T6_CAND
*SOLID SECTION,ELSET=ESTAGEB,MATERIAL=AL6061_T6_CAND
*SOLID SECTION,ELSET=ESTAGEA,MATERIAL=AL6061_T6_CAND
*BOUNDARY
NFIXED,ENCASTRE
** joint couplings (bolt-disk rigid zones)
*SURFACE,TYPE=NODE,NAME=S_NS_M6_1
NS_M6_1,
*SURFACE,TYPE=NODE,NAME=S_NS_M6_2
NS_M6_2,
*SURFACE,TYPE=NODE,NAME=S_NS_M6_3
NS_M6_3,
*SURFACE,TYPE=NODE,NAME=S_NS_M6_4
NS_M6_4,
*SURFACE,TYPE=NODE,NAME=S_NS_M5_1
NS_M5_1,
*SURFACE,TYPE=NODE,NAME=S_NS_M5_2
NS_M5_2,
*SURFACE,TYPE=NODE,NAME=S_NS_M5_3
NS_M5_3,
*SURFACE,TYPE=NODE,NAME=S_NS_M5_4
NS_M5_4,
*SURFACE,TYPE=NODE,NAME=S_NS_M5_5
NS_M5_5,
*SURFACE,TYPE=NODE,NAME=S_NS_M5_6
NS_M5_6,
*SURFACE,TYPE=NODE,NAME=S_NS_M5_7
NS_M5_7,
*SURFACE,TYPE=NODE,NAME=S_NS_M5_8
NS_M5_8,
*SURFACE,TYPE=NODE,NAME=S_NS_ARM_SPIDER
NS_ARM_SPIDER,
*COUPLING,CONSTRAINT NAME=M6_1,REF NODE=900100,SURFACE=S_NS_M6_1
*KINEMATIC
1,6
*COUPLING,CONSTRAINT NAME=M6_2,REF NODE=900101,SURFACE=S_NS_M6_2
*KINEMATIC
1,6
*COUPLING,CONSTRAINT NAME=M6_3,REF NODE=900102,SURFACE=S_NS_M6_3
*KINEMATIC
1,6
*COUPLING,CONSTRAINT NAME=M6_4,REF NODE=900103,SURFACE=S_NS_M6_4
*KINEMATIC
1,6
*COUPLING,CONSTRAINT NAME=M5_1,REF NODE=900200,SURFACE=S_NS_M5_1
*KINEMATIC
1,6
*COUPLING,CONSTRAINT NAME=M5_2,REF NODE=900201,SURFACE=S_NS_M5_2
*KINEMATIC
1,6
*COUPLING,CONSTRAINT NAME=M5_3,REF NODE=900202,SURFACE=S_NS_M5_3
*KINEMATIC
1,6
*COUPLING,CONSTRAINT NAME=M5_4,REF NODE=900203,SURFACE=S_NS_M5_4
*KINEMATIC
1,6
*COUPLING,CONSTRAINT NAME=M5_5,REF NODE=900204,SURFACE=S_NS_M5_5
*KINEMATIC
1,6
*COUPLING,CONSTRAINT NAME=M5_6,REF NODE=900205,SURFACE=S_NS_M5_6
*KINEMATIC
1,6
*COUPLING,CONSTRAINT NAME=M5_7,REF NODE=900206,SURFACE=S_NS_M5_7
*KINEMATIC
1,6
*COUPLING,CONSTRAINT NAME=M5_8,REF NODE=900207,SURFACE=S_NS_M5_8
*KINEMATIC
1,6
*COUPLING,CONSTRAINT NAME=ARM_SPIDER,REF NODE=900000,SURFACE=S_NS_ARM_SPIDER
*KINEMATIC
1,6
*STEP,NAME=QS_STEP,NLGEOM=NO
*STATIC
1.0,1.0
*CLOAD
900000,2,13.5527
900000,6,19073.3
*NODE PRINT,NSET=NFIXED
RF
*NODE PRINT,NSET=NRP
U
*EL PRINT,ELSET=EPROBES
S
*ENERGY PRINT
*OUTPUT,FIELD,VARIABLE=PRESELECT
*OUTPUT,HISTORY
*ENERGY OUTPUT
*END STEP
