*HEADING
FEA1B_M3R_INTERFACE  case=CAPTURE_22KG_QS  mesh=L1_MM_COARSE  eltype=C3D8I  material=AL6061_T6_CAND
M7 WP7 FEA_OPERATIONAL element-formulation closure (ODR-11/ODR-12).
Units: N, mm, MPa, tonne. Linear static. DESIGN_INDICATIVE results only.
** ELEMENT_FORMULATION: C3D8I -- incompatible-mode 8-node hex, 2x2x2 full integration, no hourglass modes, incompatible modes relieve shear locking in bending-dominated thin features (PRIMARY choice)
** MESH_SERIES: MESH_MATCHED  n_xy=10 (pitch 16 mm)  kz=1
** ASSUMPTION: LINEAR_STATIC_SMALL_DISPLACEMENT (NLGEOM off; loads are milli-g level)
** ASSUMPTION: BUS_SIDE_ENCASTRE_ASSUMPTION: BC-BUS-001 bus stiffness authority is HOLD; z=0 face fully clamped = stiff-boundary design bound
** ASSUMPTION: BOLT_DISK_KINEMATIC_COUPLING_ASSUMPTION: M6/M5/M4 joints modelled as rigid coupling disks (r_b=12/10/10 mm, auto-grow to >=1 node/face, recorded); no preload, no friction, no slip
** ASSUMPTION: ARM_BASE_RIGID_SPIDER_ASSUMPTION: B601 base flange stiffness >> 8 mm ring; single RP spider onto 4 as-built M4 disks; sensitivity covered by the 3-level mesh convergence series (CDR rigid_spider rule)
** ASSUMPTION: NO_CONTACT_NO_PRELOAD_NO_FRICTION: CDR joint mechanics HOLD; faces outside bolt disks untied (separation/interpenetration possible; Level-1 bound)
** ASSUMPTION: STAGE_B_IDEALIZED_ANNULAR_PLATE: pocket/recess not resolved; bore dia100 through bottom 2 layers; centre web r<50 modelled 4.0 mm (real 5.595)
** ASSUMPTION: STAGE_A_IDEALIZED_UNIFORM_RING: OD150/ID40 x 8.0 uniform; spigot, recess, counterbores not resolved
** ASSUMPTION: BRIDGE_CORNER_RADIUS_OMITTED: R4 corners modelled square; all boundaries stepped at element corners
** ASSUMPTION: SMALL_HOLES_NOT_CUT: dia6.6/5.5/4.6 holes represented by coupling disks, not voids (locally stiffer); hole-edge peak stress NOT qualified here
** ASSUMPTION: POISSON_ASSUMPTION: nu=0.33 for both Al candidates (not in M6 library)
** ASSUMPTION: MATERIALS_CANDIDATE: 6061-T6 / 7075-T651 elastic constants from M6 WP4 library, classification PROTOTYPE_CANDIDATE; margins DESIGN_INDICATIVE only
** ASSUMPTION: DYNAMIC_FACTOR_ASSUMPTION: quasi-static equivalence F_eq=DAF*J/dt, DAF=2.0, dt=0.1 s; both declared assumptions, research-bound
** ASSUMPTION: LOAD_DIRECTION_ASSUMPTION: transverse +y force plus bending moment about +z; worst-axis alignment declared (near-axisymmetric stack)
** ASSUMPTION: MEMORY_GATE_MESH_ADAPTATION: seeds 16/10/8 mm replace draft 4/2/1 mm; <=4000 C3D8R; 6.7 mm ligament NOT resolved with 3 elements; convergence assessed on global maxima trend only
** ASSUMPTION: ARM_LOADS_BOUNDED_BY_ASSUMPTION: quintic peak accel from LC-010 trajectory x r_eff=0.7 m; e-stop = 2x maneuver; arm inertia tensor not reduced (arm cases shown to be non-governing)
** ASSUMPTION: ELEMENT_FORMULATION_CHANGE: C3D8R (1 IP + hourglass control) replaced by C3D8I (2x2x2 full integration + incompatible modes). No hourglass modes exist in C3D8I, so ALLAE must collapse to ~0; this is the acceptance test
** ASSUMPTION: IP_COUNT_COMPARABILITY: C3D8R reports 1 centroidal integration point, so its 'peak von Mises' is already an element-average; C3D8I reports 8 Gauss points, whose peak is systematically above the element average in a bending field. C3D8R peak must therefore be compared against the C3D8I ELEMENT-AVERAGED value, not against the C3D8I peak IP value
** ASSUMPTION: THROUGH_THICKNESS_REFINEMENT: kz multiplies the layer count of every z segment (bridge 2kz, stage B annulus 2kz, stage B web 1kz, stage A 2kz); kz=1 reproduces the FEA-1 plane list node-for-node
** ASSUMPTION: STAIRCASE_BOUNDARY_SINGULARITY: the dia-40 / dia-100 / OD-150 circular boundaries are stepped at element corners, so each in-plane refinement level presents a DIFFERENT discrete re-entrant-corner set. Peak stress at those steps cannot converge by construction and is excluded from the region-stress convergence metric (fixed 10 mm geometric band)
** ASSUMPTION: POINT_COUPLING_SINGULARITY: the arm-base RP kinematic coupling and the per-bolt kinematic couplings are point/patch constraints; peak stress in their immediate neighbourhood rises monotonically with refinement as a constraint singularity and is reported separately (ODR-11 singularity rule), with a fixed 15 mm exclusion radius for the far-field metric
** Case load: F_y=7.21244 N, M_z=1846.1363212000001 N*mm (F=DAF*J/dt; M=F*L_grasp+DAF*C/dt (envelope row CAP22_030))
**
*NODE
1000001,-80.000000,-80.000000,0.000000
1000002,-64.000000,-80.000000,0.000000
1000003,-48.000000,-80.000000,0.000000
1000004,-32.000000,-80.000000,0.000000
1000005,-16.000000,-80.000000,0.000000
1000006,0.000000,-80.000000,0.000000
1000007,16.000000,-80.000000,0.000000
1000008,32.000000,-80.000000,0.000000
1000009,48.000000,-80.000000,0.000000
1000010,64.000000,-80.000000,0.000000
1000011,80.000000,-80.000000,0.000000
1001001,-80.000000,-64.000000,0.000000
1001002,-64.000000,-64.000000,0.000000
1001003,-48.000000,-64.000000,0.000000
1001004,-32.000000,-64.000000,0.000000
1001005,-16.000000,-64.000000,0.000000
1001006,0.000000,-64.000000,0.000000
1001007,16.000000,-64.000000,0.000000
1001008,32.000000,-64.000000,0.000000
1001009,48.000000,-64.000000,0.000000
1001010,64.000000,-64.000000,0.000000
1001011,80.000000,-64.000000,0.000000
1002001,-80.000000,-48.000000,0.000000
1002002,-64.000000,-48.000000,0.000000
1002003,-48.000000,-48.000000,0.000000
1002004,-32.000000,-48.000000,0.000000
1002005,-16.000000,-48.000000,0.000000
1002006,0.000000,-48.000000,0.000000
1002007,16.000000,-48.000000,0.000000
1002008,32.000000,-48.000000,0.000000
1002009,48.000000,-48.000000,0.000000
1002010,64.000000,-48.000000,0.000000
1002011,80.000000,-48.000000,0.000000
1003001,-80.000000,-32.000000,0.000000
1003002,-64.000000,-32.000000,0.000000
1003003,-48.000000,-32.000000,0.000000
1003004,-32.000000,-32.000000,0.000000
1003005,-16.000000,-32.000000,0.000000
1003006,0.000000,-32.000000,0.000000
1003007,16.000000,-32.000000,0.000000
1003008,32.000000,-32.000000,0.000000
1003009,48.000000,-32.000000,0.000000
1003010,64.000000,-32.000000,0.000000
1003011,80.000000,-32.000000,0.000000
1004001,-80.000000,-16.000000,0.000000
1004002,-64.000000,-16.000000,0.000000
1004003,-48.000000,-16.000000,0.000000
1004004,-32.000000,-16.000000,0.000000
1004005,-16.000000,-16.000000,0.000000
1004007,16.000000,-16.000000,0.000000
1004008,32.000000,-16.000000,0.000000
1004009,48.000000,-16.000000,0.000000
1004010,64.000000,-16.000000,0.000000
1004011,80.000000,-16.000000,0.000000
1005001,-80.000000,0.000000,0.000000
1005002,-64.000000,0.000000,0.000000
1005003,-48.000000,0.000000,0.000000
1005004,-32.000000,0.000000,0.000000
1005008,32.000000,0.000000,0.000000
1005009,48.000000,0.000000,0.000000
1005010,64.000000,0.000000,0.000000
1005011,80.000000,0.000000,0.000000
1006001,-80.000000,16.000000,0.000000
1006002,-64.000000,16.000000,0.000000
1006003,-48.000000,16.000000,0.000000
1006004,-32.000000,16.000000,0.000000
1006005,-16.000000,16.000000,0.000000
1006007,16.000000,16.000000,0.000000
1006008,32.000000,16.000000,0.000000
1006009,48.000000,16.000000,0.000000
1006010,64.000000,16.000000,0.000000
1006011,80.000000,16.000000,0.000000
1007001,-80.000000,32.000000,0.000000
1007002,-64.000000,32.000000,0.000000
1007003,-48.000000,32.000000,0.000000
1007004,-32.000000,32.000000,0.000000
1007005,-16.000000,32.000000,0.000000
1007006,0.000000,32.000000,0.000000
1007007,16.000000,32.000000,0.000000
1007008,32.000000,32.000000,0.000000
1007009,48.000000,32.000000,0.000000
1007010,64.000000,32.000000,0.000000
1007011,80.000000,32.000000,0.000000
1008001,-80.000000,48.000000,0.000000
1008002,-64.000000,48.000000,0.000000
1008003,-48.000000,48.000000,0.000000
1008004,-32.000000,48.000000,0.000000
1008005,-16.000000,48.000000,0.000000
1008006,0.000000,48.000000,0.000000
1008007,16.000000,48.000000,0.000000
1008008,32.000000,48.000000,0.000000
1008009,48.000000,48.000000,0.000000
1008010,64.000000,48.000000,0.000000
1008011,80.000000,48.000000,0.000000
1009001,-80.000000,64.000000,0.000000
1009002,-64.000000,64.000000,0.000000
1009003,-48.000000,64.000000,0.000000
1009004,-32.000000,64.000000,0.000000
1009005,-16.000000,64.000000,0.000000
1009006,0.000000,64.000000,0.000000
1009007,16.000000,64.000000,0.000000
1009008,32.000000,64.000000,0.000000
1009009,48.000000,64.000000,0.000000
1009010,64.000000,64.000000,0.000000
1009011,80.000000,64.000000,0.000000
1010001,-80.000000,80.000000,0.000000
1010002,-64.000000,80.000000,0.000000
1010003,-48.000000,80.000000,0.000000
1010004,-32.000000,80.000000,0.000000
1010005,-16.000000,80.000000,0.000000
1010006,0.000000,80.000000,0.000000
1010007,16.000000,80.000000,0.000000
1010008,32.000000,80.000000,0.000000
1010009,48.000000,80.000000,0.000000
1010010,64.000000,80.000000,0.000000
1010011,80.000000,80.000000,0.000000
2000001,-80.000000,-80.000000,5.375000
2000002,-64.000000,-80.000000,5.375000
2000003,-48.000000,-80.000000,5.375000
2000004,-32.000000,-80.000000,5.375000
2000005,-16.000000,-80.000000,5.375000
2000006,0.000000,-80.000000,5.375000
2000007,16.000000,-80.000000,5.375000
2000008,32.000000,-80.000000,5.375000
2000009,48.000000,-80.000000,5.375000
2000010,64.000000,-80.000000,5.375000
2000011,80.000000,-80.000000,5.375000
2001001,-80.000000,-64.000000,5.375000
2001002,-64.000000,-64.000000,5.375000
2001003,-48.000000,-64.000000,5.375000
2001004,-32.000000,-64.000000,5.375000
2001005,-16.000000,-64.000000,5.375000
2001006,0.000000,-64.000000,5.375000
2001007,16.000000,-64.000000,5.375000
2001008,32.000000,-64.000000,5.375000
2001009,48.000000,-64.000000,5.375000
2001010,64.000000,-64.000000,5.375000
2001011,80.000000,-64.000000,5.375000
2002001,-80.000000,-48.000000,5.375000
2002002,-64.000000,-48.000000,5.375000
2002003,-48.000000,-48.000000,5.375000
2002004,-32.000000,-48.000000,5.375000
2002005,-16.000000,-48.000000,5.375000
2002006,0.000000,-48.000000,5.375000
2002007,16.000000,-48.000000,5.375000
2002008,32.000000,-48.000000,5.375000
2002009,48.000000,-48.000000,5.375000
2002010,64.000000,-48.000000,5.375000
2002011,80.000000,-48.000000,5.375000
2003001,-80.000000,-32.000000,5.375000
2003002,-64.000000,-32.000000,5.375000
2003003,-48.000000,-32.000000,5.375000
2003004,-32.000000,-32.000000,5.375000
2003005,-16.000000,-32.000000,5.375000
2003006,0.000000,-32.000000,5.375000
2003007,16.000000,-32.000000,5.375000
2003008,32.000000,-32.000000,5.375000
2003009,48.000000,-32.000000,5.375000
2003010,64.000000,-32.000000,5.375000
2003011,80.000000,-32.000000,5.375000
2004001,-80.000000,-16.000000,5.375000
2004002,-64.000000,-16.000000,5.375000
2004003,-48.000000,-16.000000,5.375000
2004004,-32.000000,-16.000000,5.375000
2004005,-16.000000,-16.000000,5.375000
2004007,16.000000,-16.000000,5.375000
2004008,32.000000,-16.000000,5.375000
2004009,48.000000,-16.000000,5.375000
2004010,64.000000,-16.000000,5.375000
2004011,80.000000,-16.000000,5.375000
2005001,-80.000000,0.000000,5.375000
2005002,-64.000000,0.000000,5.375000
2005003,-48.000000,0.000000,5.375000
2005004,-32.000000,0.000000,5.375000
2005008,32.000000,0.000000,5.375000
2005009,48.000000,0.000000,5.375000
2005010,64.000000,0.000000,5.375000
2005011,80.000000,0.000000,5.375000
2006001,-80.000000,16.000000,5.375000
2006002,-64.000000,16.000000,5.375000
2006003,-48.000000,16.000000,5.375000
2006004,-32.000000,16.000000,5.375000
2006005,-16.000000,16.000000,5.375000
2006007,16.000000,16.000000,5.375000
2006008,32.000000,16.000000,5.375000
2006009,48.000000,16.000000,5.375000
2006010,64.000000,16.000000,5.375000
2006011,80.000000,16.000000,5.375000
2007001,-80.000000,32.000000,5.375000
2007002,-64.000000,32.000000,5.375000
2007003,-48.000000,32.000000,5.375000
2007004,-32.000000,32.000000,5.375000
2007005,-16.000000,32.000000,5.375000
2007006,0.000000,32.000000,5.375000
2007007,16.000000,32.000000,5.375000
2007008,32.000000,32.000000,5.375000
2007009,48.000000,32.000000,5.375000
2007010,64.000000,32.000000,5.375000
2007011,80.000000,32.000000,5.375000
2008001,-80.000000,48.000000,5.375000
2008002,-64.000000,48.000000,5.375000
2008003,-48.000000,48.000000,5.375000
2008004,-32.000000,48.000000,5.375000
2008005,-16.000000,48.000000,5.375000
2008006,0.000000,48.000000,5.375000
2008007,16.000000,48.000000,5.375000
2008008,32.000000,48.000000,5.375000
2008009,48.000000,48.000000,5.375000
2008010,64.000000,48.000000,5.375000
2008011,80.000000,48.000000,5.375000
2009001,-80.000000,64.000000,5.375000
2009002,-64.000000,64.000000,5.375000
2009003,-48.000000,64.000000,5.375000
2009004,-32.000000,64.000000,5.375000
2009005,-16.000000,64.000000,5.375000
2009006,0.000000,64.000000,5.375000
2009007,16.000000,64.000000,5.375000
2009008,32.000000,64.000000,5.375000
2009009,48.000000,64.000000,5.375000
2009010,64.000000,64.000000,5.375000
2009011,80.000000,64.000000,5.375000
2010001,-80.000000,80.000000,5.375000
2010002,-64.000000,80.000000,5.375000
2010003,-48.000000,80.000000,5.375000
2010004,-32.000000,80.000000,5.375000
2010005,-16.000000,80.000000,5.375000
2010006,0.000000,80.000000,5.375000
2010007,16.000000,80.000000,5.375000
2010008,32.000000,80.000000,5.375000
2010009,48.000000,80.000000,5.375000
2010010,64.000000,80.000000,5.375000
2010011,80.000000,80.000000,5.375000
3000001,-80.000000,-80.000000,10.750000
3000002,-64.000000,-80.000000,10.750000
3000003,-48.000000,-80.000000,10.750000
3000004,-32.000000,-80.000000,10.750000
3000005,-16.000000,-80.000000,10.750000
3000006,0.000000,-80.000000,10.750000
3000007,16.000000,-80.000000,10.750000
3000008,32.000000,-80.000000,10.750000
3000009,48.000000,-80.000000,10.750000
3000010,64.000000,-80.000000,10.750000
3000011,80.000000,-80.000000,10.750000
3001001,-80.000000,-64.000000,10.750000
3001002,-64.000000,-64.000000,10.750000
3001003,-48.000000,-64.000000,10.750000
3001004,-32.000000,-64.000000,10.750000
3001005,-16.000000,-64.000000,10.750000
3001006,0.000000,-64.000000,10.750000
3001007,16.000000,-64.000000,10.750000
3001008,32.000000,-64.000000,10.750000
3001009,48.000000,-64.000000,10.750000
3001010,64.000000,-64.000000,10.750000
3001011,80.000000,-64.000000,10.750000
3002001,-80.000000,-48.000000,10.750000
3002002,-64.000000,-48.000000,10.750000
3002003,-48.000000,-48.000000,10.750000
3002004,-32.000000,-48.000000,10.750000
3002005,-16.000000,-48.000000,10.750000
3002006,0.000000,-48.000000,10.750000
3002007,16.000000,-48.000000,10.750000
3002008,32.000000,-48.000000,10.750000
3002009,48.000000,-48.000000,10.750000
3002010,64.000000,-48.000000,10.750000
3002011,80.000000,-48.000000,10.750000
3003001,-80.000000,-32.000000,10.750000
3003002,-64.000000,-32.000000,10.750000
3003003,-48.000000,-32.000000,10.750000
3003004,-32.000000,-32.000000,10.750000
3003005,-16.000000,-32.000000,10.750000
3003006,0.000000,-32.000000,10.750000
3003007,16.000000,-32.000000,10.750000
3003008,32.000000,-32.000000,10.750000
3003009,48.000000,-32.000000,10.750000
3003010,64.000000,-32.000000,10.750000
3003011,80.000000,-32.000000,10.750000
3004001,-80.000000,-16.000000,10.750000
3004002,-64.000000,-16.000000,10.750000
3004003,-48.000000,-16.000000,10.750000
3004004,-32.000000,-16.000000,10.750000
3004005,-16.000000,-16.000000,10.750000
3004007,16.000000,-16.000000,10.750000
3004008,32.000000,-16.000000,10.750000
3004009,48.000000,-16.000000,10.750000
3004010,64.000000,-16.000000,10.750000
3004011,80.000000,-16.000000,10.750000
3005001,-80.000000,0.000000,10.750000
3005002,-64.000000,0.000000,10.750000
3005003,-48.000000,0.000000,10.750000
3005004,-32.000000,0.000000,10.750000
3005008,32.000000,0.000000,10.750000
3005009,48.000000,0.000000,10.750000
3005010,64.000000,0.000000,10.750000
3005011,80.000000,0.000000,10.750000
3006001,-80.000000,16.000000,10.750000
3006002,-64.000000,16.000000,10.750000
3006003,-48.000000,16.000000,10.750000
3006004,-32.000000,16.000000,10.750000
3006005,-16.000000,16.000000,10.750000
3006007,16.000000,16.000000,10.750000
3006008,32.000000,16.000000,10.750000
3006009,48.000000,16.000000,10.750000
3006010,64.000000,16.000000,10.750000
3006011,80.000000,16.000000,10.750000
3007001,-80.000000,32.000000,10.750000
3007002,-64.000000,32.000000,10.750000
3007003,-48.000000,32.000000,10.750000
3007004,-32.000000,32.000000,10.750000
3007005,-16.000000,32.000000,10.750000
3007006,0.000000,32.000000,10.750000
3007007,16.000000,32.000000,10.750000
3007008,32.000000,32.000000,10.750000
3007009,48.000000,32.000000,10.750000
3007010,64.000000,32.000000,10.750000
3007011,80.000000,32.000000,10.750000
3008001,-80.000000,48.000000,10.750000
3008002,-64.000000,48.000000,10.750000
3008003,-48.000000,48.000000,10.750000
3008004,-32.000000,48.000000,10.750000
3008005,-16.000000,48.000000,10.750000
3008006,0.000000,48.000000,10.750000
3008007,16.000000,48.000000,10.750000
3008008,32.000000,48.000000,10.750000
3008009,48.000000,48.000000,10.750000
3008010,64.000000,48.000000,10.750000
3008011,80.000000,48.000000,10.750000
3009001,-80.000000,64.000000,10.750000
3009002,-64.000000,64.000000,10.750000
3009003,-48.000000,64.000000,10.750000
3009004,-32.000000,64.000000,10.750000
3009005,-16.000000,64.000000,10.750000
3009006,0.000000,64.000000,10.750000
3009007,16.000000,64.000000,10.750000
3009008,32.000000,64.000000,10.750000
3009009,48.000000,64.000000,10.750000
3009010,64.000000,64.000000,10.750000
3009011,80.000000,64.000000,10.750000
3010001,-80.000000,80.000000,10.750000
3010002,-64.000000,80.000000,10.750000
3010003,-48.000000,80.000000,10.750000
3010004,-32.000000,80.000000,10.750000
3010005,-16.000000,80.000000,10.750000
3010006,0.000000,80.000000,10.750000
3010007,16.000000,80.000000,10.750000
3010008,32.000000,80.000000,10.750000
3010009,48.000000,80.000000,10.750000
3010010,64.000000,80.000000,10.750000
3010011,80.000000,80.000000,10.750000
4000001,-80.000000,-80.000000,10.750000
4000002,-64.000000,-80.000000,10.750000
4000003,-48.000000,-80.000000,10.750000
4000004,-32.000000,-80.000000,10.750000
4000005,-16.000000,-80.000000,10.750000
4000006,0.000000,-80.000000,10.750000
4000007,16.000000,-80.000000,10.750000
4000008,32.000000,-80.000000,10.750000
4000009,48.000000,-80.000000,10.750000
4000010,64.000000,-80.000000,10.750000
4000011,80.000000,-80.000000,10.750000
4001001,-80.000000,-64.000000,10.750000
4001002,-64.000000,-64.000000,10.750000
4001003,-48.000000,-64.000000,10.750000
4001004,-32.000000,-64.000000,10.750000
4001005,-16.000000,-64.000000,10.750000
4001006,0.000000,-64.000000,10.750000
4001007,16.000000,-64.000000,10.750000
4001008,32.000000,-64.000000,10.750000
4001009,48.000000,-64.000000,10.750000
4001010,64.000000,-64.000000,10.750000
4001011,80.000000,-64.000000,10.750000
4002001,-80.000000,-48.000000,10.750000
4002002,-64.000000,-48.000000,10.750000
4002003,-48.000000,-48.000000,10.750000
4002004,-32.000000,-48.000000,10.750000
4002005,-16.000000,-48.000000,10.750000
4002007,16.000000,-48.000000,10.750000
4002008,32.000000,-48.000000,10.750000
4002009,48.000000,-48.000000,10.750000
4002010,64.000000,-48.000000,10.750000
4002011,80.000000,-48.000000,10.750000
4003001,-80.000000,-32.000000,10.750000
4003002,-64.000000,-32.000000,10.750000
4003003,-48.000000,-32.000000,10.750000
4003009,48.000000,-32.000000,10.750000
4003010,64.000000,-32.000000,10.750000
4003011,80.000000,-32.000000,10.750000
4004001,-80.000000,-16.000000,10.750000
4004002,-64.000000,-16.000000,10.750000
4004003,-48.000000,-16.000000,10.750000
4004009,48.000000,-16.000000,10.750000
4004010,64.000000,-16.000000,10.750000
4004011,80.000000,-16.000000,10.750000
4005001,-80.000000,0.000000,10.750000
4005002,-64.000000,0.000000,10.750000
4005010,64.000000,0.000000,10.750000
4005011,80.000000,0.000000,10.750000
4006001,-80.000000,16.000000,10.750000
4006002,-64.000000,16.000000,10.750000
4006003,-48.000000,16.000000,10.750000
4006009,48.000000,16.000000,10.750000
4006010,64.000000,16.000000,10.750000
4006011,80.000000,16.000000,10.750000
4007001,-80.000000,32.000000,10.750000
4007002,-64.000000,32.000000,10.750000
4007003,-48.000000,32.000000,10.750000
4007009,48.000000,32.000000,10.750000
4007010,64.000000,32.000000,10.750000
4007011,80.000000,32.000000,10.750000
4008001,-80.000000,48.000000,10.750000
4008002,-64.000000,48.000000,10.750000
4008003,-48.000000,48.000000,10.750000
4008004,-32.000000,48.000000,10.750000
4008005,-16.000000,48.000000,10.750000
4008007,16.000000,48.000000,10.750000
4008008,32.000000,48.000000,10.750000
4008009,48.000000,48.000000,10.750000
4008010,64.000000,48.000000,10.750000
4008011,80.000000,48.000000,10.750000
4009001,-80.000000,64.000000,10.750000
4009002,-64.000000,64.000000,10.750000
4009003,-48.000000,64.000000,10.750000
4009004,-32.000000,64.000000,10.750000
4009005,-16.000000,64.000000,10.750000
4009006,0.000000,64.000000,10.750000
4009007,16.000000,64.000000,10.750000
4009008,32.000000,64.000000,10.750000
4009009,48.000000,64.000000,10.750000
4009010,64.000000,64.000000,10.750000
4009011,80.000000,64.000000,10.750000
4010001,-80.000000,80.000000,10.750000
4010002,-64.000000,80.000000,10.750000
4010003,-48.000000,80.000000,10.750000
4010004,-32.000000,80.000000,10.750000
4010005,-16.000000,80.000000,10.750000
4010006,0.000000,80.000000,10.750000
4010007,16.000000,80.000000,10.750000
4010008,32.000000,80.000000,10.750000
4010009,48.000000,80.000000,10.750000
4010010,64.000000,80.000000,10.750000
4010011,80.000000,80.000000,10.750000
5000001,-80.000000,-80.000000,14.750000
5000002,-64.000000,-80.000000,14.750000
5000003,-48.000000,-80.000000,14.750000
5000004,-32.000000,-80.000000,14.750000
5000005,-16.000000,-80.000000,14.750000
5000006,0.000000,-80.000000,14.750000
5000007,16.000000,-80.000000,14.750000
5000008,32.000000,-80.000000,14.750000
5000009,48.000000,-80.000000,14.750000
5000010,64.000000,-80.000000,14.750000
5000011,80.000000,-80.000000,14.750000
5001001,-80.000000,-64.000000,14.750000
5001002,-64.000000,-64.000000,14.750000
5001003,-48.000000,-64.000000,14.750000
5001004,-32.000000,-64.000000,14.750000
5001005,-16.000000,-64.000000,14.750000
5001006,0.000000,-64.000000,14.750000
5001007,16.000000,-64.000000,14.750000
5001008,32.000000,-64.000000,14.750000
5001009,48.000000,-64.000000,14.750000
5001010,64.000000,-64.000000,14.750000
5001011,80.000000,-64.000000,14.750000
5002001,-80.000000,-48.000000,14.750000
5002002,-64.000000,-48.000000,14.750000
5002003,-48.000000,-48.000000,14.750000
5002004,-32.000000,-48.000000,14.750000
5002005,-16.000000,-48.000000,14.750000
5002007,16.000000,-48.000000,14.750000
5002008,32.000000,-48.000000,14.750000
5002009,48.000000,-48.000000,14.750000
5002010,64.000000,-48.000000,14.750000
5002011,80.000000,-48.000000,14.750000
5003001,-80.000000,-32.000000,14.750000
5003002,-64.000000,-32.000000,14.750000
5003003,-48.000000,-32.000000,14.750000
5003009,48.000000,-32.000000,14.750000
5003010,64.000000,-32.000000,14.750000
5003011,80.000000,-32.000000,14.750000
5004001,-80.000000,-16.000000,14.750000
5004002,-64.000000,-16.000000,14.750000
5004003,-48.000000,-16.000000,14.750000
5004009,48.000000,-16.000000,14.750000
5004010,64.000000,-16.000000,14.750000
5004011,80.000000,-16.000000,14.750000
5005001,-80.000000,0.000000,14.750000
5005002,-64.000000,0.000000,14.750000
5005010,64.000000,0.000000,14.750000
5005011,80.000000,0.000000,14.750000
5006001,-80.000000,16.000000,14.750000
5006002,-64.000000,16.000000,14.750000
5006003,-48.000000,16.000000,14.750000
5006009,48.000000,16.000000,14.750000
5006010,64.000000,16.000000,14.750000
5006011,80.000000,16.000000,14.750000
5007001,-80.000000,32.000000,14.750000
5007002,-64.000000,32.000000,14.750000
5007003,-48.000000,32.000000,14.750000
5007009,48.000000,32.000000,14.750000
5007010,64.000000,32.000000,14.750000
5007011,80.000000,32.000000,14.750000
5008001,-80.000000,48.000000,14.750000
5008002,-64.000000,48.000000,14.750000
5008003,-48.000000,48.000000,14.750000
5008004,-32.000000,48.000000,14.750000
5008005,-16.000000,48.000000,14.750000
5008007,16.000000,48.000000,14.750000
5008008,32.000000,48.000000,14.750000
5008009,48.000000,48.000000,14.750000
5008010,64.000000,48.000000,14.750000
5008011,80.000000,48.000000,14.750000
5009001,-80.000000,64.000000,14.750000
5009002,-64.000000,64.000000,14.750000
5009003,-48.000000,64.000000,14.750000
5009004,-32.000000,64.000000,14.750000
5009005,-16.000000,64.000000,14.750000
5009006,0.000000,64.000000,14.750000
5009007,16.000000,64.000000,14.750000
5009008,32.000000,64.000000,14.750000
5009009,48.000000,64.000000,14.750000
5009010,64.000000,64.000000,14.750000
5009011,80.000000,64.000000,14.750000
5010001,-80.000000,80.000000,14.750000
5010002,-64.000000,80.000000,14.750000
5010003,-48.000000,80.000000,14.750000
5010004,-32.000000,80.000000,14.750000
5010005,-16.000000,80.000000,14.750000
5010006,0.000000,80.000000,14.750000
5010007,16.000000,80.000000,14.750000
5010008,32.000000,80.000000,14.750000
5010009,48.000000,80.000000,14.750000
5010010,64.000000,80.000000,14.750000
5010011,80.000000,80.000000,14.750000
6000001,-80.000000,-80.000000,18.750000
6000002,-64.000000,-80.000000,18.750000
6000003,-48.000000,-80.000000,18.750000
6000004,-32.000000,-80.000000,18.750000
6000005,-16.000000,-80.000000,18.750000
6000006,0.000000,-80.000000,18.750000
6000007,16.000000,-80.000000,18.750000
6000008,32.000000,-80.000000,18.750000
6000009,48.000000,-80.000000,18.750000
6000010,64.000000,-80.000000,18.750000
6000011,80.000000,-80.000000,18.750000
6001001,-80.000000,-64.000000,18.750000
6001002,-64.000000,-64.000000,18.750000
6001003,-48.000000,-64.000000,18.750000
6001004,-32.000000,-64.000000,18.750000
6001005,-16.000000,-64.000000,18.750000
6001006,0.000000,-64.000000,18.750000
6001007,16.000000,-64.000000,18.750000
6001008,32.000000,-64.000000,18.750000
6001009,48.000000,-64.000000,18.750000
6001010,64.000000,-64.000000,18.750000
6001011,80.000000,-64.000000,18.750000
6002001,-80.000000,-48.000000,18.750000
6002002,-64.000000,-48.000000,18.750000
6002003,-48.000000,-48.000000,18.750000
6002004,-32.000000,-48.000000,18.750000
6002005,-16.000000,-48.000000,18.750000
6002006,0.000000,-48.000000,18.750000
6002007,16.000000,-48.000000,18.750000
6002008,32.000000,-48.000000,18.750000
6002009,48.000000,-48.000000,18.750000
6002010,64.000000,-48.000000,18.750000
6002011,80.000000,-48.000000,18.750000
6003001,-80.000000,-32.000000,18.750000
6003002,-64.000000,-32.000000,18.750000
6003003,-48.000000,-32.000000,18.750000
6003004,-32.000000,-32.000000,18.750000
6003005,-16.000000,-32.000000,18.750000
6003006,0.000000,-32.000000,18.750000
6003007,16.000000,-32.000000,18.750000
6003008,32.000000,-32.000000,18.750000
6003009,48.000000,-32.000000,18.750000
6003010,64.000000,-32.000000,18.750000
6003011,80.000000,-32.000000,18.750000
6004001,-80.000000,-16.000000,18.750000
6004002,-64.000000,-16.000000,18.750000
6004003,-48.000000,-16.000000,18.750000
6004004,-32.000000,-16.000000,18.750000
6004005,-16.000000,-16.000000,18.750000
6004006,0.000000,-16.000000,18.750000
6004007,16.000000,-16.000000,18.750000
6004008,32.000000,-16.000000,18.750000
6004009,48.000000,-16.000000,18.750000
6004010,64.000000,-16.000000,18.750000
6004011,80.000000,-16.000000,18.750000
6005001,-80.000000,0.000000,18.750000
6005002,-64.000000,0.000000,18.750000
6005003,-48.000000,0.000000,18.750000
6005004,-32.000000,0.000000,18.750000
6005005,-16.000000,0.000000,18.750000
6005006,0.000000,0.000000,18.750000
6005007,16.000000,0.000000,18.750000
6005008,32.000000,0.000000,18.750000
6005009,48.000000,0.000000,18.750000
6005010,64.000000,0.000000,18.750000
6005011,80.000000,0.000000,18.750000
6006001,-80.000000,16.000000,18.750000
6006002,-64.000000,16.000000,18.750000
6006003,-48.000000,16.000000,18.750000
6006004,-32.000000,16.000000,18.750000
6006005,-16.000000,16.000000,18.750000
6006006,0.000000,16.000000,18.750000
6006007,16.000000,16.000000,18.750000
6006008,32.000000,16.000000,18.750000
6006009,48.000000,16.000000,18.750000
6006010,64.000000,16.000000,18.750000
6006011,80.000000,16.000000,18.750000
6007001,-80.000000,32.000000,18.750000
6007002,-64.000000,32.000000,18.750000
6007003,-48.000000,32.000000,18.750000
6007004,-32.000000,32.000000,18.750000
6007005,-16.000000,32.000000,18.750000
6007006,0.000000,32.000000,18.750000
6007007,16.000000,32.000000,18.750000
6007008,32.000000,32.000000,18.750000
6007009,48.000000,32.000000,18.750000
6007010,64.000000,32.000000,18.750000
6007011,80.000000,32.000000,18.750000
6008001,-80.000000,48.000000,18.750000
6008002,-64.000000,48.000000,18.750000
6008003,-48.000000,48.000000,18.750000
6008004,-32.000000,48.000000,18.750000
6008005,-16.000000,48.000000,18.750000
6008006,0.000000,48.000000,18.750000
6008007,16.000000,48.000000,18.750000
6008008,32.000000,48.000000,18.750000
6008009,48.000000,48.000000,18.750000
6008010,64.000000,48.000000,18.750000
6008011,80.000000,48.000000,18.750000
6009001,-80.000000,64.000000,18.750000
6009002,-64.000000,64.000000,18.750000
6009003,-48.000000,64.000000,18.750000
6009004,-32.000000,64.000000,18.750000
6009005,-16.000000,64.000000,18.750000
6009006,0.000000,64.000000,18.750000
6009007,16.000000,64.000000,18.750000
6009008,32.000000,64.000000,18.750000
6009009,48.000000,64.000000,18.750000
6009010,64.000000,64.000000,18.750000
6009011,80.000000,64.000000,18.750000
6010001,-80.000000,80.000000,18.750000
6010002,-64.000000,80.000000,18.750000
6010003,-48.000000,80.000000,18.750000
6010004,-32.000000,80.000000,18.750000
6010005,-16.000000,80.000000,18.750000
6010006,0.000000,80.000000,18.750000
6010007,16.000000,80.000000,18.750000
6010008,32.000000,80.000000,18.750000
6010009,48.000000,80.000000,18.750000
6010010,64.000000,80.000000,18.750000
6010011,80.000000,80.000000,18.750000
7000001,-80.000000,-80.000000,22.750000
7000002,-64.000000,-80.000000,22.750000
7000003,-48.000000,-80.000000,22.750000
7000004,-32.000000,-80.000000,22.750000
7000005,-16.000000,-80.000000,22.750000
7000006,0.000000,-80.000000,22.750000
7000007,16.000000,-80.000000,22.750000
7000008,32.000000,-80.000000,22.750000
7000009,48.000000,-80.000000,22.750000
7000010,64.000000,-80.000000,22.750000
7000011,80.000000,-80.000000,22.750000
7001001,-80.000000,-64.000000,22.750000
7001002,-64.000000,-64.000000,22.750000
7001003,-48.000000,-64.000000,22.750000
7001004,-32.000000,-64.000000,22.750000
7001005,-16.000000,-64.000000,22.750000
7001006,0.000000,-64.000000,22.750000
7001007,16.000000,-64.000000,22.750000
7001008,32.000000,-64.000000,22.750000
7001009,48.000000,-64.000000,22.750000
7001010,64.000000,-64.000000,22.750000
7001011,80.000000,-64.000000,22.750000
7002001,-80.000000,-48.000000,22.750000
7002002,-64.000000,-48.000000,22.750000
7002003,-48.000000,-48.000000,22.750000
7002004,-32.000000,-48.000000,22.750000
7002005,-16.000000,-48.000000,22.750000
7002006,0.000000,-48.000000,22.750000
7002007,16.000000,-48.000000,22.750000
7002008,32.000000,-48.000000,22.750000
7002009,48.000000,-48.000000,22.750000
7002010,64.000000,-48.000000,22.750000
7002011,80.000000,-48.000000,22.750000
7003001,-80.000000,-32.000000,22.750000
7003002,-64.000000,-32.000000,22.750000
7003003,-48.000000,-32.000000,22.750000
7003004,-32.000000,-32.000000,22.750000
7003005,-16.000000,-32.000000,22.750000
7003006,0.000000,-32.000000,22.750000
7003007,16.000000,-32.000000,22.750000
7003008,32.000000,-32.000000,22.750000
7003009,48.000000,-32.000000,22.750000
7003010,64.000000,-32.000000,22.750000
7003011,80.000000,-32.000000,22.750000
7004001,-80.000000,-16.000000,22.750000
7004002,-64.000000,-16.000000,22.750000
7004003,-48.000000,-16.000000,22.750000
7004004,-32.000000,-16.000000,22.750000
7004005,-16.000000,-16.000000,22.750000
7004006,0.000000,-16.000000,22.750000
7004007,16.000000,-16.000000,22.750000
7004008,32.000000,-16.000000,22.750000
7004009,48.000000,-16.000000,22.750000
7004010,64.000000,-16.000000,22.750000
7004011,80.000000,-16.000000,22.750000
7005001,-80.000000,0.000000,22.750000
7005002,-64.000000,0.000000,22.750000
7005003,-48.000000,0.000000,22.750000
7005004,-32.000000,0.000000,22.750000
7005005,-16.000000,0.000000,22.750000
7005006,0.000000,0.000000,22.750000
7005007,16.000000,0.000000,22.750000
7005008,32.000000,0.000000,22.750000
7005009,48.000000,0.000000,22.750000
7005010,64.000000,0.000000,22.750000
7005011,80.000000,0.000000,22.750000
7006001,-80.000000,16.000000,22.750000
7006002,-64.000000,16.000000,22.750000
7006003,-48.000000,16.000000,22.750000
7006004,-32.000000,16.000000,22.750000
7006005,-16.000000,16.000000,22.750000
7006006,0.000000,16.000000,22.750000
7006007,16.000000,16.000000,22.750000
7006008,32.000000,16.000000,22.750000
7006009,48.000000,16.000000,22.750000
7006010,64.000000,16.000000,22.750000
7006011,80.000000,16.000000,22.750000
7007001,-80.000000,32.000000,22.750000
7007002,-64.000000,32.000000,22.750000
7007003,-48.000000,32.000000,22.750000
7007004,-32.000000,32.000000,22.750000
7007005,-16.000000,32.000000,22.750000
7007006,0.000000,32.000000,22.750000
7007007,16.000000,32.000000,22.750000
7007008,32.000000,32.000000,22.750000
7007009,48.000000,32.000000,22.750000
7007010,64.000000,32.000000,22.750000
7007011,80.000000,32.000000,22.750000
7008001,-80.000000,48.000000,22.750000
7008002,-64.000000,48.000000,22.750000
7008003,-48.000000,48.000000,22.750000
7008004,-32.000000,48.000000,22.750000
7008005,-16.000000,48.000000,22.750000
7008006,0.000000,48.000000,22.750000
7008007,16.000000,48.000000,22.750000
7008008,32.000000,48.000000,22.750000
7008009,48.000000,48.000000,22.750000
7008010,64.000000,48.000000,22.750000
7008011,80.000000,48.000000,22.750000
7009001,-80.000000,64.000000,22.750000
7009002,-64.000000,64.000000,22.750000
7009003,-48.000000,64.000000,22.750000
7009004,-32.000000,64.000000,22.750000
7009005,-16.000000,64.000000,22.750000
7009006,0.000000,64.000000,22.750000
7009007,16.000000,64.000000,22.750000
7009008,32.000000,64.000000,22.750000
7009009,48.000000,64.000000,22.750000
7009010,64.000000,64.000000,22.750000
7009011,80.000000,64.000000,22.750000
7010001,-80.000000,80.000000,22.750000
7010002,-64.000000,80.000000,22.750000
7010003,-48.000000,80.000000,22.750000
7010004,-32.000000,80.000000,22.750000
7010005,-16.000000,80.000000,22.750000
7010006,0.000000,80.000000,22.750000
7010007,16.000000,80.000000,22.750000
7010008,32.000000,80.000000,22.750000
7010009,48.000000,80.000000,22.750000
7010010,64.000000,80.000000,22.750000
7010011,80.000000,80.000000,22.750000
8001004,-32.000000,-64.000000,22.750000
8001005,-16.000000,-64.000000,22.750000
8001006,0.000000,-64.000000,22.750000
8001007,16.000000,-64.000000,22.750000
8001008,32.000000,-64.000000,22.750000
8002003,-48.000000,-48.000000,22.750000
8002004,-32.000000,-48.000000,22.750000
8002005,-16.000000,-48.000000,22.750000
8002006,0.000000,-48.000000,22.750000
8002007,16.000000,-48.000000,22.750000
8002008,32.000000,-48.000000,22.750000
8002009,48.000000,-48.000000,22.750000
8003002,-64.000000,-32.000000,22.750000
8003003,-48.000000,-32.000000,22.750000
8003004,-32.000000,-32.000000,22.750000
8003005,-16.000000,-32.000000,22.750000
8003006,0.000000,-32.000000,22.750000
8003007,16.000000,-32.000000,22.750000
8003008,32.000000,-32.000000,22.750000
8003009,48.000000,-32.000000,22.750000
8003010,64.000000,-32.000000,22.750000
8004002,-64.000000,-16.000000,22.750000
8004003,-48.000000,-16.000000,22.750000
8004004,-32.000000,-16.000000,22.750000
8004005,-16.000000,-16.000000,22.750000
8004007,16.000000,-16.000000,22.750000
8004008,32.000000,-16.000000,22.750000
8004009,48.000000,-16.000000,22.750000
8004010,64.000000,-16.000000,22.750000
8005002,-64.000000,0.000000,22.750000
8005003,-48.000000,0.000000,22.750000
8005004,-32.000000,0.000000,22.750000
8005008,32.000000,0.000000,22.750000
8005009,48.000000,0.000000,22.750000
8005010,64.000000,0.000000,22.750000
8006002,-64.000000,16.000000,22.750000
8006003,-48.000000,16.000000,22.750000
8006004,-32.000000,16.000000,22.750000
8006005,-16.000000,16.000000,22.750000
8006007,16.000000,16.000000,22.750000
8006008,32.000000,16.000000,22.750000
8006009,48.000000,16.000000,22.750000
8006010,64.000000,16.000000,22.750000
8007002,-64.000000,32.000000,22.750000
8007003,-48.000000,32.000000,22.750000
8007004,-32.000000,32.000000,22.750000
8007005,-16.000000,32.000000,22.750000
8007006,0.000000,32.000000,22.750000
8007007,16.000000,32.000000,22.750000
8007008,32.000000,32.000000,22.750000
8007009,48.000000,32.000000,22.750000
8007010,64.000000,32.000000,22.750000
8008003,-48.000000,48.000000,22.750000
8008004,-32.000000,48.000000,22.750000
8008005,-16.000000,48.000000,22.750000
8008006,0.000000,48.000000,22.750000
8008007,16.000000,48.000000,22.750000
8008008,32.000000,48.000000,22.750000
8008009,48.000000,48.000000,22.750000
8009004,-32.000000,64.000000,22.750000
8009005,-16.000000,64.000000,22.750000
8009006,0.000000,64.000000,22.750000
8009007,16.000000,64.000000,22.750000
8009008,32.000000,64.000000,22.750000
9001004,-32.000000,-64.000000,26.750000
9001005,-16.000000,-64.000000,26.750000
9001006,0.000000,-64.000000,26.750000
9001007,16.000000,-64.000000,26.750000
9001008,32.000000,-64.000000,26.750000
9002003,-48.000000,-48.000000,26.750000
9002004,-32.000000,-48.000000,26.750000
9002005,-16.000000,-48.000000,26.750000
9002006,0.000000,-48.000000,26.750000
9002007,16.000000,-48.000000,26.750000
9002008,32.000000,-48.000000,26.750000
9002009,48.000000,-48.000000,26.750000
9003002,-64.000000,-32.000000,26.750000
9003003,-48.000000,-32.000000,26.750000
9003004,-32.000000,-32.000000,26.750000
9003005,-16.000000,-32.000000,26.750000
9003006,0.000000,-32.000000,26.750000
9003007,16.000000,-32.000000,26.750000
9003008,32.000000,-32.000000,26.750000
9003009,48.000000,-32.000000,26.750000
9003010,64.000000,-32.000000,26.750000
9004002,-64.000000,-16.000000,26.750000
9004003,-48.000000,-16.000000,26.750000
9004004,-32.000000,-16.000000,26.750000
9004005,-16.000000,-16.000000,26.750000
9004007,16.000000,-16.000000,26.750000
9004008,32.000000,-16.000000,26.750000
9004009,48.000000,-16.000000,26.750000
9004010,64.000000,-16.000000,26.750000
9005002,-64.000000,0.000000,26.750000
9005003,-48.000000,0.000000,26.750000
9005004,-32.000000,0.000000,26.750000
9005008,32.000000,0.000000,26.750000
9005009,48.000000,0.000000,26.750000
9005010,64.000000,0.000000,26.750000
9006002,-64.000000,16.000000,26.750000
9006003,-48.000000,16.000000,26.750000
9006004,-32.000000,16.000000,26.750000
9006005,-16.000000,16.000000,26.750000
9006007,16.000000,16.000000,26.750000
9006008,32.000000,16.000000,26.750000
9006009,48.000000,16.000000,26.750000
9006010,64.000000,16.000000,26.750000
9007002,-64.000000,32.000000,26.750000
9007003,-48.000000,32.000000,26.750000
9007004,-32.000000,32.000000,26.750000
9007005,-16.000000,32.000000,26.750000
9007006,0.000000,32.000000,26.750000
9007007,16.000000,32.000000,26.750000
9007008,32.000000,32.000000,26.750000
9007009,48.000000,32.000000,26.750000
9007010,64.000000,32.000000,26.750000
9008003,-48.000000,48.000000,26.750000
9008004,-32.000000,48.000000,26.750000
9008005,-16.000000,48.000000,26.750000
9008006,0.000000,48.000000,26.750000
9008007,16.000000,48.000000,26.750000
9008008,32.000000,48.000000,26.750000
9008009,48.000000,48.000000,26.750000
9009004,-32.000000,64.000000,26.750000
9009005,-16.000000,64.000000,26.750000
9009006,0.000000,64.000000,26.750000
9009007,16.000000,64.000000,26.750000
9009008,32.000000,64.000000,26.750000
10001004,-32.000000,-64.000000,30.750000
10001005,-16.000000,-64.000000,30.750000
10001006,0.000000,-64.000000,30.750000
10001007,16.000000,-64.000000,30.750000
10001008,32.000000,-64.000000,30.750000
10002003,-48.000000,-48.000000,30.750000
10002004,-32.000000,-48.000000,30.750000
10002005,-16.000000,-48.000000,30.750000
10002006,0.000000,-48.000000,30.750000
10002007,16.000000,-48.000000,30.750000
10002008,32.000000,-48.000000,30.750000
10002009,48.000000,-48.000000,30.750000
10003002,-64.000000,-32.000000,30.750000
10003003,-48.000000,-32.000000,30.750000
10003004,-32.000000,-32.000000,30.750000
10003005,-16.000000,-32.000000,30.750000
10003006,0.000000,-32.000000,30.750000
10003007,16.000000,-32.000000,30.750000
10003008,32.000000,-32.000000,30.750000
10003009,48.000000,-32.000000,30.750000
10003010,64.000000,-32.000000,30.750000
10004002,-64.000000,-16.000000,30.750000
10004003,-48.000000,-16.000000,30.750000
10004004,-32.000000,-16.000000,30.750000
10004005,-16.000000,-16.000000,30.750000
10004007,16.000000,-16.000000,30.750000
10004008,32.000000,-16.000000,30.750000
10004009,48.000000,-16.000000,30.750000
10004010,64.000000,-16.000000,30.750000
10005002,-64.000000,0.000000,30.750000
10005003,-48.000000,0.000000,30.750000
10005004,-32.000000,0.000000,30.750000
10005008,32.000000,0.000000,30.750000
10005009,48.000000,0.000000,30.750000
10005010,64.000000,0.000000,30.750000
10006002,-64.000000,16.000000,30.750000
10006003,-48.000000,16.000000,30.750000
10006004,-32.000000,16.000000,30.750000
10006005,-16.000000,16.000000,30.750000
10006007,16.000000,16.000000,30.750000
10006008,32.000000,16.000000,30.750000
10006009,48.000000,16.000000,30.750000
10006010,64.000000,16.000000,30.750000
10007002,-64.000000,32.000000,30.750000
10007003,-48.000000,32.000000,30.750000
10007004,-32.000000,32.000000,30.750000
10007005,-16.000000,32.000000,30.750000
10007006,0.000000,32.000000,30.750000
10007007,16.000000,32.000000,30.750000
10007008,32.000000,32.000000,30.750000
10007009,48.000000,32.000000,30.750000
10007010,64.000000,32.000000,30.750000
10008003,-48.000000,48.000000,30.750000
10008004,-32.000000,48.000000,30.750000
10008005,-16.000000,48.000000,30.750000
10008006,0.000000,48.000000,30.750000
10008007,16.000000,48.000000,30.750000
10008008,32.000000,48.000000,30.750000
10008009,48.000000,48.000000,30.750000
10009004,-32.000000,64.000000,30.750000
10009005,-16.000000,64.000000,30.750000
10009006,0.000000,64.000000,30.750000
10009007,16.000000,64.000000,30.750000
10009008,32.000000,64.000000,30.750000
99000000,0.0,0.0,30.75
99000100,70.000000,70.000000,10.75
99000101,70.000000,-70.000000,10.75
99000102,-70.000000,70.000000,10.75
99000103,-70.000000,-70.000000,10.75
99000200,57.742471,23.917715,22.75
99000201,23.917715,57.742471,22.75
99000202,-23.917715,57.742471,22.75
99000203,-57.742471,23.917715,22.75
99000204,-57.742471,-23.917715,22.75
99000205,-23.917715,-57.742471,22.75
99000206,23.917715,-57.742471,22.75
99000207,57.742471,-23.917715,22.75
*ELEMENT,TYPE=C3D8I,ELSET=EALL
1,1000001,1000002,1001002,1001001,2000001,2000002,2001002,2001001
2,1000002,1000003,1001003,1001002,2000002,2000003,2001003,2001002
3,1000003,1000004,1001004,1001003,2000003,2000004,2001004,2001003
4,1000004,1000005,1001005,1001004,2000004,2000005,2001005,2001004
5,1000005,1000006,1001006,1001005,2000005,2000006,2001006,2001005
6,1000006,1000007,1001007,1001006,2000006,2000007,2001007,2001006
7,1000007,1000008,1001008,1001007,2000007,2000008,2001008,2001007
8,1000008,1000009,1001009,1001008,2000008,2000009,2001009,2001008
9,1000009,1000010,1001010,1001009,2000009,2000010,2001010,2001009
10,1000010,1000011,1001011,1001010,2000010,2000011,2001011,2001010
11,1001001,1001002,1002002,1002001,2001001,2001002,2002002,2002001
12,1001002,1001003,1002003,1002002,2001002,2001003,2002003,2002002
13,1001003,1001004,1002004,1002003,2001003,2001004,2002004,2002003
14,1001004,1001005,1002005,1002004,2001004,2001005,2002005,2002004
15,1001005,1001006,1002006,1002005,2001005,2001006,2002006,2002005
16,1001006,1001007,1002007,1002006,2001006,2001007,2002007,2002006
17,1001007,1001008,1002008,1002007,2001007,2001008,2002008,2002007
18,1001008,1001009,1002009,1002008,2001008,2001009,2002009,2002008
19,1001009,1001010,1002010,1002009,2001009,2001010,2002010,2002009
20,1001010,1001011,1002011,1002010,2001010,2001011,2002011,2002010
21,1002001,1002002,1003002,1003001,2002001,2002002,2003002,2003001
22,1002002,1002003,1003003,1003002,2002002,2002003,2003003,2003002
23,1002003,1002004,1003004,1003003,2002003,2002004,2003004,2003003
24,1002004,1002005,1003005,1003004,2002004,2002005,2003005,2003004
25,1002005,1002006,1003006,1003005,2002005,2002006,2003006,2003005
26,1002006,1002007,1003007,1003006,2002006,2002007,2003007,2003006
27,1002007,1002008,1003008,1003007,2002007,2002008,2003008,2003007
28,1002008,1002009,1003009,1003008,2002008,2002009,2003009,2003008
29,1002009,1002010,1003010,1003009,2002009,2002010,2003010,2003009
30,1002010,1002011,1003011,1003010,2002010,2002011,2003011,2003010
31,1003001,1003002,1004002,1004001,2003001,2003002,2004002,2004001
32,1003002,1003003,1004003,1004002,2003002,2003003,2004003,2004002
33,1003003,1003004,1004004,1004003,2003003,2003004,2004004,2004003
34,1003004,1003005,1004005,1004004,2003004,2003005,2004005,2004004
35,1003007,1003008,1004008,1004007,2003007,2003008,2004008,2004007
36,1003008,1003009,1004009,1004008,2003008,2003009,2004009,2004008
37,1003009,1003010,1004010,1004009,2003009,2003010,2004010,2004009
38,1003010,1003011,1004011,1004010,2003010,2003011,2004011,2004010
39,1004001,1004002,1005002,1005001,2004001,2004002,2005002,2005001
40,1004002,1004003,1005003,1005002,2004002,2004003,2005003,2005002
41,1004003,1004004,1005004,1005003,2004003,2004004,2005004,2005003
42,1004008,1004009,1005009,1005008,2004008,2004009,2005009,2005008
43,1004009,1004010,1005010,1005009,2004009,2004010,2005010,2005009
44,1004010,1004011,1005011,1005010,2004010,2004011,2005011,2005010
45,1005001,1005002,1006002,1006001,2005001,2005002,2006002,2006001
46,1005002,1005003,1006003,1006002,2005002,2005003,2006003,2006002
47,1005003,1005004,1006004,1006003,2005003,2005004,2006004,2006003
48,1005008,1005009,1006009,1006008,2005008,2005009,2006009,2006008
49,1005009,1005010,1006010,1006009,2005009,2005010,2006010,2006009
50,1005010,1005011,1006011,1006010,2005010,2005011,2006011,2006010
51,1006001,1006002,1007002,1007001,2006001,2006002,2007002,2007001
52,1006002,1006003,1007003,1007002,2006002,2006003,2007003,2007002
53,1006003,1006004,1007004,1007003,2006003,2006004,2007004,2007003
54,1006004,1006005,1007005,1007004,2006004,2006005,2007005,2007004
55,1006007,1006008,1007008,1007007,2006007,2006008,2007008,2007007
56,1006008,1006009,1007009,1007008,2006008,2006009,2007009,2007008
57,1006009,1006010,1007010,1007009,2006009,2006010,2007010,2007009
58,1006010,1006011,1007011,1007010,2006010,2006011,2007011,2007010
59,1007001,1007002,1008002,1008001,2007001,2007002,2008002,2008001
60,1007002,1007003,1008003,1008002,2007002,2007003,2008003,2008002
61,1007003,1007004,1008004,1008003,2007003,2007004,2008004,2008003
62,1007004,1007005,1008005,1008004,2007004,2007005,2008005,2008004
63,1007005,1007006,1008006,1008005,2007005,2007006,2008006,2008005
64,1007006,1007007,1008007,1008006,2007006,2007007,2008007,2008006
65,1007007,1007008,1008008,1008007,2007007,2007008,2008008,2008007
66,1007008,1007009,1008009,1008008,2007008,2007009,2008009,2008008
67,1007009,1007010,1008010,1008009,2007009,2007010,2008010,2008009
68,1007010,1007011,1008011,1008010,2007010,2007011,2008011,2008010
69,1008001,1008002,1009002,1009001,2008001,2008002,2009002,2009001
70,1008002,1008003,1009003,1009002,2008002,2008003,2009003,2009002
71,1008003,1008004,1009004,1009003,2008003,2008004,2009004,2009003
72,1008004,1008005,1009005,1009004,2008004,2008005,2009005,2009004
73,1008005,1008006,1009006,1009005,2008005,2008006,2009006,2009005
74,1008006,1008007,1009007,1009006,2008006,2008007,2009007,2009006
75,1008007,1008008,1009008,1009007,2008007,2008008,2009008,2009007
76,1008008,1008009,1009009,1009008,2008008,2008009,2009009,2009008
77,1008009,1008010,1009010,1009009,2008009,2008010,2009010,2009009
78,1008010,1008011,1009011,1009010,2008010,2008011,2009011,2009010
79,1009001,1009002,1010002,1010001,2009001,2009002,2010002,2010001
80,1009002,1009003,1010003,1010002,2009002,2009003,2010003,2010002
81,1009003,1009004,1010004,1010003,2009003,2009004,2010004,2010003
82,1009004,1009005,1010005,1010004,2009004,2009005,2010005,2010004
83,1009005,1009006,1010006,1010005,2009005,2009006,2010006,2010005
84,1009006,1009007,1010007,1010006,2009006,2009007,2010007,2010006
85,1009007,1009008,1010008,1010007,2009007,2009008,2010008,2010007
86,1009008,1009009,1010009,1010008,2009008,2009009,2010009,2010008
87,1009009,1009010,1010010,1010009,2009009,2009010,2010010,2010009
88,1009010,1009011,1010011,1010010,2009010,2009011,2010011,2010010
89,2000001,2000002,2001002,2001001,3000001,3000002,3001002,3001001
90,2000002,2000003,2001003,2001002,3000002,3000003,3001003,3001002
91,2000003,2000004,2001004,2001003,3000003,3000004,3001004,3001003
92,2000004,2000005,2001005,2001004,3000004,3000005,3001005,3001004
93,2000005,2000006,2001006,2001005,3000005,3000006,3001006,3001005
94,2000006,2000007,2001007,2001006,3000006,3000007,3001007,3001006
95,2000007,2000008,2001008,2001007,3000007,3000008,3001008,3001007
96,2000008,2000009,2001009,2001008,3000008,3000009,3001009,3001008
97,2000009,2000010,2001010,2001009,3000009,3000010,3001010,3001009
98,2000010,2000011,2001011,2001010,3000010,3000011,3001011,3001010
99,2001001,2001002,2002002,2002001,3001001,3001002,3002002,3002001
100,2001002,2001003,2002003,2002002,3001002,3001003,3002003,3002002
101,2001003,2001004,2002004,2002003,3001003,3001004,3002004,3002003
102,2001004,2001005,2002005,2002004,3001004,3001005,3002005,3002004
103,2001005,2001006,2002006,2002005,3001005,3001006,3002006,3002005
104,2001006,2001007,2002007,2002006,3001006,3001007,3002007,3002006
105,2001007,2001008,2002008,2002007,3001007,3001008,3002008,3002007
106,2001008,2001009,2002009,2002008,3001008,3001009,3002009,3002008
107,2001009,2001010,2002010,2002009,3001009,3001010,3002010,3002009
108,2001010,2001011,2002011,2002010,3001010,3001011,3002011,3002010
109,2002001,2002002,2003002,2003001,3002001,3002002,3003002,3003001
110,2002002,2002003,2003003,2003002,3002002,3002003,3003003,3003002
111,2002003,2002004,2003004,2003003,3002003,3002004,3003004,3003003
112,2002004,2002005,2003005,2003004,3002004,3002005,3003005,3003004
113,2002005,2002006,2003006,2003005,3002005,3002006,3003006,3003005
114,2002006,2002007,2003007,2003006,3002006,3002007,3003007,3003006
115,2002007,2002008,2003008,2003007,3002007,3002008,3003008,3003007
116,2002008,2002009,2003009,2003008,3002008,3002009,3003009,3003008
117,2002009,2002010,2003010,2003009,3002009,3002010,3003010,3003009
118,2002010,2002011,2003011,2003010,3002010,3002011,3003011,3003010
119,2003001,2003002,2004002,2004001,3003001,3003002,3004002,3004001
120,2003002,2003003,2004003,2004002,3003002,3003003,3004003,3004002
121,2003003,2003004,2004004,2004003,3003003,3003004,3004004,3004003
122,2003004,2003005,2004005,2004004,3003004,3003005,3004005,3004004
123,2003007,2003008,2004008,2004007,3003007,3003008,3004008,3004007
124,2003008,2003009,2004009,2004008,3003008,3003009,3004009,3004008
125,2003009,2003010,2004010,2004009,3003009,3003010,3004010,3004009
126,2003010,2003011,2004011,2004010,3003010,3003011,3004011,3004010
127,2004001,2004002,2005002,2005001,3004001,3004002,3005002,3005001
128,2004002,2004003,2005003,2005002,3004002,3004003,3005003,3005002
129,2004003,2004004,2005004,2005003,3004003,3004004,3005004,3005003
130,2004008,2004009,2005009,2005008,3004008,3004009,3005009,3005008
131,2004009,2004010,2005010,2005009,3004009,3004010,3005010,3005009
132,2004010,2004011,2005011,2005010,3004010,3004011,3005011,3005010
133,2005001,2005002,2006002,2006001,3005001,3005002,3006002,3006001
134,2005002,2005003,2006003,2006002,3005002,3005003,3006003,3006002
135,2005003,2005004,2006004,2006003,3005003,3005004,3006004,3006003
136,2005008,2005009,2006009,2006008,3005008,3005009,3006009,3006008
137,2005009,2005010,2006010,2006009,3005009,3005010,3006010,3006009
138,2005010,2005011,2006011,2006010,3005010,3005011,3006011,3006010
139,2006001,2006002,2007002,2007001,3006001,3006002,3007002,3007001
140,2006002,2006003,2007003,2007002,3006002,3006003,3007003,3007002
141,2006003,2006004,2007004,2007003,3006003,3006004,3007004,3007003
142,2006004,2006005,2007005,2007004,3006004,3006005,3007005,3007004
143,2006007,2006008,2007008,2007007,3006007,3006008,3007008,3007007
144,2006008,2006009,2007009,2007008,3006008,3006009,3007009,3007008
145,2006009,2006010,2007010,2007009,3006009,3006010,3007010,3007009
146,2006010,2006011,2007011,2007010,3006010,3006011,3007011,3007010
147,2007001,2007002,2008002,2008001,3007001,3007002,3008002,3008001
148,2007002,2007003,2008003,2008002,3007002,3007003,3008003,3008002
149,2007003,2007004,2008004,2008003,3007003,3007004,3008004,3008003
150,2007004,2007005,2008005,2008004,3007004,3007005,3008005,3008004
151,2007005,2007006,2008006,2008005,3007005,3007006,3008006,3008005
152,2007006,2007007,2008007,2008006,3007006,3007007,3008007,3008006
153,2007007,2007008,2008008,2008007,3007007,3007008,3008008,3008007
154,2007008,2007009,2008009,2008008,3007008,3007009,3008009,3008008
155,2007009,2007010,2008010,2008009,3007009,3007010,3008010,3008009
156,2007010,2007011,2008011,2008010,3007010,3007011,3008011,3008010
157,2008001,2008002,2009002,2009001,3008001,3008002,3009002,3009001
158,2008002,2008003,2009003,2009002,3008002,3008003,3009003,3009002
159,2008003,2008004,2009004,2009003,3008003,3008004,3009004,3009003
160,2008004,2008005,2009005,2009004,3008004,3008005,3009005,3009004
161,2008005,2008006,2009006,2009005,3008005,3008006,3009006,3009005
162,2008006,2008007,2009007,2009006,3008006,3008007,3009007,3009006
163,2008007,2008008,2009008,2009007,3008007,3008008,3009008,3009007
164,2008008,2008009,2009009,2009008,3008008,3008009,3009009,3009008
165,2008009,2008010,2009010,2009009,3008009,3008010,3009010,3009009
166,2008010,2008011,2009011,2009010,3008010,3008011,3009011,3009010
167,2009001,2009002,2010002,2010001,3009001,3009002,3010002,3010001
168,2009002,2009003,2010003,2010002,3009002,3009003,3010003,3010002
169,2009003,2009004,2010004,2010003,3009003,3009004,3010004,3010003
170,2009004,2009005,2010005,2010004,3009004,3009005,3010005,3010004
171,2009005,2009006,2010006,2010005,3009005,3009006,3010006,3010005
172,2009006,2009007,2010007,2010006,3009006,3009007,3010007,3010006
173,2009007,2009008,2010008,2010007,3009007,3009008,3010008,3010007
174,2009008,2009009,2010009,2010008,3009008,3009009,3010009,3010008
175,2009009,2009010,2010010,2010009,3009009,3009010,3010010,3010009
176,2009010,2009011,2010011,2010010,3009010,3009011,3010011,3010010
177,4000001,4000002,4001002,4001001,5000001,5000002,5001002,5001001
178,4000002,4000003,4001003,4001002,5000002,5000003,5001003,5001002
179,4000003,4000004,4001004,4001003,5000003,5000004,5001004,5001003
180,4000004,4000005,4001005,4001004,5000004,5000005,5001005,5001004
181,4000005,4000006,4001006,4001005,5000005,5000006,5001006,5001005
182,4000006,4000007,4001007,4001006,5000006,5000007,5001007,5001006
183,4000007,4000008,4001008,4001007,5000007,5000008,5001008,5001007
184,4000008,4000009,4001009,4001008,5000008,5000009,5001009,5001008
185,4000009,4000010,4001010,4001009,5000009,5000010,5001010,5001009
186,4000010,4000011,4001011,4001010,5000010,5000011,5001011,5001010
187,4001001,4001002,4002002,4002001,5001001,5001002,5002002,5002001
188,4001002,4001003,4002003,4002002,5001002,5001003,5002003,5002002
189,4001003,4001004,4002004,4002003,5001003,5001004,5002004,5002003
190,4001004,4001005,4002005,4002004,5001004,5001005,5002005,5002004
191,4001007,4001008,4002008,4002007,5001007,5001008,5002008,5002007
192,4001008,4001009,4002009,4002008,5001008,5001009,5002009,5002008
193,4001009,4001010,4002010,4002009,5001009,5001010,5002010,5002009
194,4001010,4001011,4002011,4002010,5001010,5001011,5002011,5002010
195,4002001,4002002,4003002,4003001,5002001,5002002,5003002,5003001
196,4002002,4002003,4003003,4003002,5002002,5002003,5003003,5003002
197,4002009,4002010,4003010,4003009,5002009,5002010,5003010,5003009
198,4002010,4002011,4003011,4003010,5002010,5002011,5003011,5003010
199,4003001,4003002,4004002,4004001,5003001,5003002,5004002,5004001
200,4003002,4003003,4004003,4004002,5003002,5003003,5004003,5004002
201,4003009,4003010,4004010,4004009,5003009,5003010,5004010,5004009
202,4003010,4003011,4004011,4004010,5003010,5003011,5004011,5004010
203,4004001,4004002,4005002,4005001,5004001,5004002,5005002,5005001
204,4004010,4004011,4005011,4005010,5004010,5004011,5005011,5005010
205,4005001,4005002,4006002,4006001,5005001,5005002,5006002,5006001
206,4005010,4005011,4006011,4006010,5005010,5005011,5006011,5006010
207,4006001,4006002,4007002,4007001,5006001,5006002,5007002,5007001
208,4006002,4006003,4007003,4007002,5006002,5006003,5007003,5007002
209,4006009,4006010,4007010,4007009,5006009,5006010,5007010,5007009
210,4006010,4006011,4007011,4007010,5006010,5006011,5007011,5007010
211,4007001,4007002,4008002,4008001,5007001,5007002,5008002,5008001
212,4007002,4007003,4008003,4008002,5007002,5007003,5008003,5008002
213,4007009,4007010,4008010,4008009,5007009,5007010,5008010,5008009
214,4007010,4007011,4008011,4008010,5007010,5007011,5008011,5008010
215,4008001,4008002,4009002,4009001,5008001,5008002,5009002,5009001
216,4008002,4008003,4009003,4009002,5008002,5008003,5009003,5009002
217,4008003,4008004,4009004,4009003,5008003,5008004,5009004,5009003
218,4008004,4008005,4009005,4009004,5008004,5008005,5009005,5009004
219,4008007,4008008,4009008,4009007,5008007,5008008,5009008,5009007
220,4008008,4008009,4009009,4009008,5008008,5008009,5009009,5009008
221,4008009,4008010,4009010,4009009,5008009,5008010,5009010,5009009
222,4008010,4008011,4009011,4009010,5008010,5008011,5009011,5009010
223,4009001,4009002,4010002,4010001,5009001,5009002,5010002,5010001
224,4009002,4009003,4010003,4010002,5009002,5009003,5010003,5010002
225,4009003,4009004,4010004,4010003,5009003,5009004,5010004,5010003
226,4009004,4009005,4010005,4010004,5009004,5009005,5010005,5010004
227,4009005,4009006,4010006,4010005,5009005,5009006,5010006,5010005
228,4009006,4009007,4010007,4010006,5009006,5009007,5010007,5010006
229,4009007,4009008,4010008,4010007,5009007,5009008,5010008,5010007
230,4009008,4009009,4010009,4010008,5009008,5009009,5010009,5010008
231,4009009,4009010,4010010,4010009,5009009,5009010,5010010,5010009
232,4009010,4009011,4010011,4010010,5009010,5009011,5010011,5010010
233,5000001,5000002,5001002,5001001,6000001,6000002,6001002,6001001
234,5000002,5000003,5001003,5001002,6000002,6000003,6001003,6001002
235,5000003,5000004,5001004,5001003,6000003,6000004,6001004,6001003
236,5000004,5000005,5001005,5001004,6000004,6000005,6001005,6001004
237,5000005,5000006,5001006,5001005,6000005,6000006,6001006,6001005
238,5000006,5000007,5001007,5001006,6000006,6000007,6001007,6001006
239,5000007,5000008,5001008,5001007,6000007,6000008,6001008,6001007
240,5000008,5000009,5001009,5001008,6000008,6000009,6001009,6001008
241,5000009,5000010,5001010,5001009,6000009,6000010,6001010,6001009
242,5000010,5000011,5001011,5001010,6000010,6000011,6001011,6001010
243,5001001,5001002,5002002,5002001,6001001,6001002,6002002,6002001
244,5001002,5001003,5002003,5002002,6001002,6001003,6002003,6002002
245,5001003,5001004,5002004,5002003,6001003,6001004,6002004,6002003
246,5001004,5001005,5002005,5002004,6001004,6001005,6002005,6002004
247,5001007,5001008,5002008,5002007,6001007,6001008,6002008,6002007
248,5001008,5001009,5002009,5002008,6001008,6001009,6002009,6002008
249,5001009,5001010,5002010,5002009,6001009,6001010,6002010,6002009
250,5001010,5001011,5002011,5002010,6001010,6001011,6002011,6002010
251,5002001,5002002,5003002,5003001,6002001,6002002,6003002,6003001
252,5002002,5002003,5003003,5003002,6002002,6002003,6003003,6003002
253,5002009,5002010,5003010,5003009,6002009,6002010,6003010,6003009
254,5002010,5002011,5003011,5003010,6002010,6002011,6003011,6003010
255,5003001,5003002,5004002,5004001,6003001,6003002,6004002,6004001
256,5003002,5003003,5004003,5004002,6003002,6003003,6004003,6004002
257,5003009,5003010,5004010,5004009,6003009,6003010,6004010,6004009
258,5003010,5003011,5004011,5004010,6003010,6003011,6004011,6004010
259,5004001,5004002,5005002,5005001,6004001,6004002,6005002,6005001
260,5004010,5004011,5005011,5005010,6004010,6004011,6005011,6005010
261,5005001,5005002,5006002,5006001,6005001,6005002,6006002,6006001
262,5005010,5005011,5006011,5006010,6005010,6005011,6006011,6006010
263,5006001,5006002,5007002,5007001,6006001,6006002,6007002,6007001
264,5006002,5006003,5007003,5007002,6006002,6006003,6007003,6007002
265,5006009,5006010,5007010,5007009,6006009,6006010,6007010,6007009
266,5006010,5006011,5007011,5007010,6006010,6006011,6007011,6007010
267,5007001,5007002,5008002,5008001,6007001,6007002,6008002,6008001
268,5007002,5007003,5008003,5008002,6007002,6007003,6008003,6008002
269,5007009,5007010,5008010,5008009,6007009,6007010,6008010,6008009
270,5007010,5007011,5008011,5008010,6007010,6007011,6008011,6008010
271,5008001,5008002,5009002,5009001,6008001,6008002,6009002,6009001
272,5008002,5008003,5009003,5009002,6008002,6008003,6009003,6009002
273,5008003,5008004,5009004,5009003,6008003,6008004,6009004,6009003
274,5008004,5008005,5009005,5009004,6008004,6008005,6009005,6009004
275,5008007,5008008,5009008,5009007,6008007,6008008,6009008,6009007
276,5008008,5008009,5009009,5009008,6008008,6008009,6009009,6009008
277,5008009,5008010,5009010,5009009,6008009,6008010,6009010,6009009
278,5008010,5008011,5009011,5009010,6008010,6008011,6009011,6009010
279,5009001,5009002,5010002,5010001,6009001,6009002,6010002,6010001
280,5009002,5009003,5010003,5010002,6009002,6009003,6010003,6010002
281,5009003,5009004,5010004,5010003,6009003,6009004,6010004,6010003
282,5009004,5009005,5010005,5010004,6009004,6009005,6010005,6010004
283,5009005,5009006,5010006,5010005,6009005,6009006,6010006,6010005
284,5009006,5009007,5010007,5010006,6009006,6009007,6010007,6010006
285,5009007,5009008,5010008,5010007,6009007,6009008,6010008,6010007
286,5009008,5009009,5010009,5010008,6009008,6009009,6010009,6010008
287,5009009,5009010,5010010,5010009,6009009,6009010,6010010,6010009
288,5009010,5009011,5010011,5010010,6009010,6009011,6010011,6010010
289,6000001,6000002,6001002,6001001,7000001,7000002,7001002,7001001
290,6000002,6000003,6001003,6001002,7000002,7000003,7001003,7001002
291,6000003,6000004,6001004,6001003,7000003,7000004,7001004,7001003
292,6000004,6000005,6001005,6001004,7000004,7000005,7001005,7001004
293,6000005,6000006,6001006,6001005,7000005,7000006,7001006,7001005
294,6000006,6000007,6001007,6001006,7000006,7000007,7001007,7001006
295,6000007,6000008,6001008,6001007,7000007,7000008,7001008,7001007
296,6000008,6000009,6001009,6001008,7000008,7000009,7001009,7001008
297,6000009,6000010,6001010,6001009,7000009,7000010,7001010,7001009
298,6000010,6000011,6001011,6001010,7000010,7000011,7001011,7001010
299,6001001,6001002,6002002,6002001,7001001,7001002,7002002,7002001
300,6001002,6001003,6002003,6002002,7001002,7001003,7002003,7002002
301,6001003,6001004,6002004,6002003,7001003,7001004,7002004,7002003
302,6001004,6001005,6002005,6002004,7001004,7001005,7002005,7002004
303,6001005,6001006,6002006,6002005,7001005,7001006,7002006,7002005
304,6001006,6001007,6002007,6002006,7001006,7001007,7002007,7002006
305,6001007,6001008,6002008,6002007,7001007,7001008,7002008,7002007
306,6001008,6001009,6002009,6002008,7001008,7001009,7002009,7002008
307,6001009,6001010,6002010,6002009,7001009,7001010,7002010,7002009
308,6001010,6001011,6002011,6002010,7001010,7001011,7002011,7002010
309,6002001,6002002,6003002,6003001,7002001,7002002,7003002,7003001
310,6002002,6002003,6003003,6003002,7002002,7002003,7003003,7003002
311,6002003,6002004,6003004,6003003,7002003,7002004,7003004,7003003
312,6002004,6002005,6003005,6003004,7002004,7002005,7003005,7003004
313,6002005,6002006,6003006,6003005,7002005,7002006,7003006,7003005
314,6002006,6002007,6003007,6003006,7002006,7002007,7003007,7003006
315,6002007,6002008,6003008,6003007,7002007,7002008,7003008,7003007
316,6002008,6002009,6003009,6003008,7002008,7002009,7003009,7003008
317,6002009,6002010,6003010,6003009,7002009,7002010,7003010,7003009
318,6002010,6002011,6003011,6003010,7002010,7002011,7003011,7003010
319,6003001,6003002,6004002,6004001,7003001,7003002,7004002,7004001
320,6003002,6003003,6004003,6004002,7003002,7003003,7004003,7004002
321,6003003,6003004,6004004,6004003,7003003,7003004,7004004,7004003
322,6003004,6003005,6004005,6004004,7003004,7003005,7004005,7004004
323,6003005,6003006,6004006,6004005,7003005,7003006,7004006,7004005
324,6003006,6003007,6004007,6004006,7003006,7003007,7004007,7004006
325,6003007,6003008,6004008,6004007,7003007,7003008,7004008,7004007
326,6003008,6003009,6004009,6004008,7003008,7003009,7004009,7004008
327,6003009,6003010,6004010,6004009,7003009,7003010,7004010,7004009
328,6003010,6003011,6004011,6004010,7003010,7003011,7004011,7004010
329,6004001,6004002,6005002,6005001,7004001,7004002,7005002,7005001
330,6004002,6004003,6005003,6005002,7004002,7004003,7005003,7005002
331,6004003,6004004,6005004,6005003,7004003,7004004,7005004,7005003
332,6004004,6004005,6005005,6005004,7004004,7004005,7005005,7005004
333,6004005,6004006,6005006,6005005,7004005,7004006,7005006,7005005
334,6004006,6004007,6005007,6005006,7004006,7004007,7005007,7005006
335,6004007,6004008,6005008,6005007,7004007,7004008,7005008,7005007
336,6004008,6004009,6005009,6005008,7004008,7004009,7005009,7005008
337,6004009,6004010,6005010,6005009,7004009,7004010,7005010,7005009
338,6004010,6004011,6005011,6005010,7004010,7004011,7005011,7005010
339,6005001,6005002,6006002,6006001,7005001,7005002,7006002,7006001
340,6005002,6005003,6006003,6006002,7005002,7005003,7006003,7006002
341,6005003,6005004,6006004,6006003,7005003,7005004,7006004,7006003
342,6005004,6005005,6006005,6006004,7005004,7005005,7006005,7006004
343,6005005,6005006,6006006,6006005,7005005,7005006,7006006,7006005
344,6005006,6005007,6006007,6006006,7005006,7005007,7006007,7006006
345,6005007,6005008,6006008,6006007,7005007,7005008,7006008,7006007
346,6005008,6005009,6006009,6006008,7005008,7005009,7006009,7006008
347,6005009,6005010,6006010,6006009,7005009,7005010,7006010,7006009
348,6005010,6005011,6006011,6006010,7005010,7005011,7006011,7006010
349,6006001,6006002,6007002,6007001,7006001,7006002,7007002,7007001
350,6006002,6006003,6007003,6007002,7006002,7006003,7007003,7007002
351,6006003,6006004,6007004,6007003,7006003,7006004,7007004,7007003
352,6006004,6006005,6007005,6007004,7006004,7006005,7007005,7007004
353,6006005,6006006,6007006,6007005,7006005,7006006,7007006,7007005
354,6006006,6006007,6007007,6007006,7006006,7006007,7007007,7007006
355,6006007,6006008,6007008,6007007,7006007,7006008,7007008,7007007
356,6006008,6006009,6007009,6007008,7006008,7006009,7007009,7007008
357,6006009,6006010,6007010,6007009,7006009,7006010,7007010,7007009
358,6006010,6006011,6007011,6007010,7006010,7006011,7007011,7007010
359,6007001,6007002,6008002,6008001,7007001,7007002,7008002,7008001
360,6007002,6007003,6008003,6008002,7007002,7007003,7008003,7008002
361,6007003,6007004,6008004,6008003,7007003,7007004,7008004,7008003
362,6007004,6007005,6008005,6008004,7007004,7007005,7008005,7008004
363,6007005,6007006,6008006,6008005,7007005,7007006,7008006,7008005
364,6007006,6007007,6008007,6008006,7007006,7007007,7008007,7008006
365,6007007,6007008,6008008,6008007,7007007,7007008,7008008,7008007
366,6007008,6007009,6008009,6008008,7007008,7007009,7008009,7008008
367,6007009,6007010,6008010,6008009,7007009,7007010,7008010,7008009
368,6007010,6007011,6008011,6008010,7007010,7007011,7008011,7008010
369,6008001,6008002,6009002,6009001,7008001,7008002,7009002,7009001
370,6008002,6008003,6009003,6009002,7008002,7008003,7009003,7009002
371,6008003,6008004,6009004,6009003,7008003,7008004,7009004,7009003
372,6008004,6008005,6009005,6009004,7008004,7008005,7009005,7009004
373,6008005,6008006,6009006,6009005,7008005,7008006,7009006,7009005
374,6008006,6008007,6009007,6009006,7008006,7008007,7009007,7009006
375,6008007,6008008,6009008,6009007,7008007,7008008,7009008,7009007
376,6008008,6008009,6009009,6009008,7008008,7008009,7009009,7009008
377,6008009,6008010,6009010,6009009,7008009,7008010,7009010,7009009
378,6008010,6008011,6009011,6009010,7008010,7008011,7009011,7009010
379,6009001,6009002,6010002,6010001,7009001,7009002,7010002,7010001
380,6009002,6009003,6010003,6010002,7009002,7009003,7010003,7010002
381,6009003,6009004,6010004,6010003,7009003,7009004,7010004,7010003
382,6009004,6009005,6010005,6010004,7009004,7009005,7010005,7010004
383,6009005,6009006,6010006,6010005,7009005,7009006,7010006,7010005
384,6009006,6009007,6010007,6010006,7009006,7009007,7010007,7010006
385,6009007,6009008,6010008,6010007,7009007,7009008,7010008,7010007
386,6009008,6009009,6010009,6010008,7009008,7009009,7010009,7010008
387,6009009,6009010,6010010,6010009,7009009,7009010,7010010,7010009
388,6009010,6009011,6010011,6010010,7009010,7009011,7010011,7010010
389,8001004,8001005,8002005,8002004,9001004,9001005,9002005,9002004
390,8001005,8001006,8002006,8002005,9001005,9001006,9002006,9002005
391,8001006,8001007,8002007,8002006,9001006,9001007,9002007,9002006
392,8001007,8001008,8002008,8002007,9001007,9001008,9002008,9002007
393,8002003,8002004,8003004,8003003,9002003,9002004,9003004,9003003
394,8002004,8002005,8003005,8003004,9002004,9002005,9003005,9003004
395,8002005,8002006,8003006,8003005,9002005,9002006,9003006,9003005
396,8002006,8002007,8003007,8003006,9002006,9002007,9003007,9003006
397,8002007,8002008,8003008,8003007,9002007,9002008,9003008,9003007
398,8002008,8002009,8003009,8003008,9002008,9002009,9003009,9003008
399,8003002,8003003,8004003,8004002,9003002,9003003,9004003,9004002
400,8003003,8003004,8004004,8004003,9003003,9003004,9004004,9004003
401,8003004,8003005,8004005,8004004,9003004,9003005,9004005,9004004
402,8003007,8003008,8004008,8004007,9003007,9003008,9004008,9004007
403,8003008,8003009,8004009,8004008,9003008,9003009,9004009,9004008
404,8003009,8003010,8004010,8004009,9003009,9003010,9004010,9004009
405,8004002,8004003,8005003,8005002,9004002,9004003,9005003,9005002
406,8004003,8004004,8005004,8005003,9004003,9004004,9005004,9005003
407,8004008,8004009,8005009,8005008,9004008,9004009,9005009,9005008
408,8004009,8004010,8005010,8005009,9004009,9004010,9005010,9005009
409,8005002,8005003,8006003,8006002,9005002,9005003,9006003,9006002
410,8005003,8005004,8006004,8006003,9005003,9005004,9006004,9006003
411,8005008,8005009,8006009,8006008,9005008,9005009,9006009,9006008
412,8005009,8005010,8006010,8006009,9005009,9005010,9006010,9006009
413,8006002,8006003,8007003,8007002,9006002,9006003,9007003,9007002
414,8006003,8006004,8007004,8007003,9006003,9006004,9007004,9007003
415,8006004,8006005,8007005,8007004,9006004,9006005,9007005,9007004
416,8006007,8006008,8007008,8007007,9006007,9006008,9007008,9007007
417,8006008,8006009,8007009,8007008,9006008,9006009,9007009,9007008
418,8006009,8006010,8007010,8007009,9006009,9006010,9007010,9007009
419,8007003,8007004,8008004,8008003,9007003,9007004,9008004,9008003
420,8007004,8007005,8008005,8008004,9007004,9007005,9008005,9008004
421,8007005,8007006,8008006,8008005,9007005,9007006,9008006,9008005
422,8007006,8007007,8008007,8008006,9007006,9007007,9008007,9008006
423,8007007,8007008,8008008,8008007,9007007,9007008,9008008,9008007
424,8007008,8007009,8008009,8008008,9007008,9007009,9008009,9008008
425,8008004,8008005,8009005,8009004,9008004,9008005,9009005,9009004
426,8008005,8008006,8009006,8009005,9008005,9008006,9009006,9009005
427,8008006,8008007,8009007,8009006,9008006,9008007,9009007,9009006
428,8008007,8008008,8009008,8009007,9008007,9008008,9009008,9009007
429,9001004,9001005,9002005,9002004,10001004,10001005,10002005,10002004
430,9001005,9001006,9002006,9002005,10001005,10001006,10002006,10002005
431,9001006,9001007,9002007,9002006,10001006,10001007,10002007,10002006
432,9001007,9001008,9002008,9002007,10001007,10001008,10002008,10002007
433,9002003,9002004,9003004,9003003,10002003,10002004,10003004,10003003
434,9002004,9002005,9003005,9003004,10002004,10002005,10003005,10003004
435,9002005,9002006,9003006,9003005,10002005,10002006,10003006,10003005
436,9002006,9002007,9003007,9003006,10002006,10002007,10003007,10003006
437,9002007,9002008,9003008,9003007,10002007,10002008,10003008,10003007
438,9002008,9002009,9003009,9003008,10002008,10002009,10003009,10003008
439,9003002,9003003,9004003,9004002,10003002,10003003,10004003,10004002
440,9003003,9003004,9004004,9004003,10003003,10003004,10004004,10004003
441,9003004,9003005,9004005,9004004,10003004,10003005,10004005,10004004
442,9003007,9003008,9004008,9004007,10003007,10003008,10004008,10004007
443,9003008,9003009,9004009,9004008,10003008,10003009,10004009,10004008
444,9003009,9003010,9004010,9004009,10003009,10003010,10004010,10004009
445,9004002,9004003,9005003,9005002,10004002,10004003,10005003,10005002
446,9004003,9004004,9005004,9005003,10004003,10004004,10005004,10005003
447,9004008,9004009,9005009,9005008,10004008,10004009,10005009,10005008
448,9004009,9004010,9005010,9005009,10004009,10004010,10005010,10005009
449,9005002,9005003,9006003,9006002,10005002,10005003,10006003,10006002
450,9005003,9005004,9006004,9006003,10005003,10005004,10006004,10006003
451,9005008,9005009,9006009,9006008,10005008,10005009,10006009,10006008
452,9005009,9005010,9006010,9006009,10005009,10005010,10006010,10006009
453,9006002,9006003,9007003,9007002,10006002,10006003,10007003,10007002
454,9006003,9006004,9007004,9007003,10006003,10006004,10007004,10007003
455,9006004,9006005,9007005,9007004,10006004,10006005,10007005,10007004
456,9006007,9006008,9007008,9007007,10006007,10006008,10007008,10007007
457,9006008,9006009,9007009,9007008,10006008,10006009,10007009,10007008
458,9006009,9006010,9007010,9007009,10006009,10006010,10007010,10007009
459,9007003,9007004,9008004,9008003,10007003,10007004,10008004,10008003
460,9007004,9007005,9008005,9008004,10007004,10007005,10008005,10008004
461,9007005,9007006,9008006,9008005,10007005,10007006,10008006,10008005
462,9007006,9007007,9008007,9008006,10007006,10007007,10008007,10008006
463,9007007,9007008,9008008,9008007,10007007,10007008,10008008,10008007
464,9007008,9007009,9008009,9008008,10007008,10007009,10008009,10008008
465,9008004,9008005,9009005,9009004,10008004,10008005,10009005,10009004
466,9008005,9008006,9009006,9009005,10008005,10008006,10009006,10009005
467,9008006,9008007,9009007,9009006,10008006,10008007,10009007,10009006
468,9008007,9008008,9009008,9009007,10008007,10008008,10009008,10009007
*ELSET,ELSET=EBRIDGE
1,2,3,4,5,6,7,8,9,10,11,12,13,14,15,16
17,18,19,20,21,22,23,24,25,26,27,28,29,30,31,32
33,34,35,36,37,38,39,40,41,42,43,44,45,46,47,48
49,50,51,52,53,54,55,56,57,58,59,60,61,62,63,64
65,66,67,68,69,70,71,72,73,74,75,76,77,78,79,80
81,82,83,84,85,86,87,88,89,90,91,92,93,94,95,96
97,98,99,100,101,102,103,104,105,106,107,108,109,110,111,112
113,114,115,116,117,118,119,120,121,122,123,124,125,126,127,128
129,130,131,132,133,134,135,136,137,138,139,140,141,142,143,144
145,146,147,148,149,150,151,152,153,154,155,156,157,158,159,160
161,162,163,164,165,166,167,168,169,170,171,172,173,174,175,176
*ELSET,ELSET=ESTAGEB
177,178,179,180,181,182,183,184,185,186,187,188,189,190,191,192
193,194,195,196,197,198,199,200,201,202,203,204,205,206,207,208
209,210,211,212,213,214,215,216,217,218,219,220,221,222,223,224
225,226,227,228,229,230,231,232,233,234,235,236,237,238,239,240
241,242,243,244,245,246,247,248,249,250,251,252,253,254,255,256
257,258,259,260,261,262,263,264,265,266,267,268,269,270,271,272
273,274,275,276,277,278,279,280,281,282,283,284,285,286,287,288
289,290,291,292,293,294,295,296,297,298,299,300,301,302,303,304
305,306,307,308,309,310,311,312,313,314,315,316,317,318,319,320
321,322,323,324,325,326,327,328,329,330,331,332,333,334,335,336
337,338,339,340,341,342,343,344,345,346,347,348,349,350,351,352
353,354,355,356,357,358,359,360,361,362,363,364,365,366,367,368
369,370,371,372,373,374,375,376,377,378,379,380,381,382,383,384
385,386,387,388
*ELSET,ELSET=ESTAGEA
389,390,391,392,393,394,395,396,397,398,399,400,401,402,403,404
405,406,407,408,409,410,411,412,413,414,415,416,417,418,419,420
421,422,423,424,425,426,427,428,429,430,431,432,433,434,435,436
437,438,439,440,441,442,443,444,445,446,447,448,449,450,451,452
453,454,455,456,457,458,459,460,461,462,463,464,465,466,467,468
*ELSET,ELSET=EPROBES
165,366,462,42
*NSET,NSET=NFIXED
1000001,1000002,1000003,1000004,1000005,1000006,1000007,1000008,1000009,1000010,1000011,1001001,1001002,1001003,1001004,1001005
1001006,1001007,1001008,1001009,1001010,1001011,1002001,1002002,1002003,1002004,1002005,1002006,1002007,1002008,1002009,1002010
1002011,1003001,1003002,1003003,1003004,1003005,1003006,1003007,1003008,1003009,1003010,1003011,1004001,1004002,1004003,1004004
1004005,1004007,1004008,1004009,1004010,1004011,1005001,1005002,1005003,1005004,1005008,1005009,1005010,1005011,1006001,1006002
1006003,1006004,1006005,1006007,1006008,1006009,1006010,1006011,1007001,1007002,1007003,1007004,1007005,1007006,1007007,1007008
1007009,1007010,1007011,1008001,1008002,1008003,1008004,1008005,1008006,1008007,1008008,1008009,1008010,1008011,1009001,1009002
1009003,1009004,1009005,1009006,1009007,1009008,1009009,1009010,1009011,1010001,1010002,1010003,1010004,1010005,1010006,1010007
1010008,1010009,1010010,1010011
*NSET,NSET=NRP
99000000
*NSET,NSET=NS_ARM_SPIDER
10002005,10004009,10006003,10008007
*NSET,NSET=NS_M5_1
7006010,7007010,8006010,8007010
*NSET,NSET=NS_M5_2
7009007,7009008,8009007,8009008
*NSET,NSET=NS_M5_3
7009004,7009005,8009004,8009005
*NSET,NSET=NS_M5_4
7006002,7007002,8006002,8007002
*NSET,NSET=NS_M5_5
7003002,7004002,8003002,8004002
*NSET,NSET=NS_M5_6
7001004,7001005,8001004,8001005
*NSET,NSET=NS_M5_7
7001007,7001008,8001007,8001008
*NSET,NSET=NS_M5_8
7003010,7004010,8003010,8004010
*NSET,NSET=NS_M6_1
3009010,3009011,3010010,4009010,4009011,4010010
*NSET,NSET=NS_M6_2
3000010,3001010,3001011,4000010,4001010,4001011
*NSET,NSET=NS_M6_3
3009001,3009002,3010002,4009001,4009002,4010002
*NSET,NSET=NS_M6_4
3000002,3001001,3001002,4000002,4001001,4001002
*MATERIAL,NAME=AL6061_T6_CAND
*ELASTIC
68300.0,0.33
*DENSITY
2.700e-09
*SOLID SECTION,ELSET=EBRIDGE,MATERIAL=AL6061_T6_CAND
*SOLID SECTION,ELSET=ESTAGEB,MATERIAL=AL6061_T6_CAND
*SOLID SECTION,ELSET=ESTAGEA,MATERIAL=AL6061_T6_CAND
*BOUNDARY
NFIXED,ENCASTRE
** joint couplings (bolt-disk rigid zones) -- identical to solved FEA-1
*SURFACE,TYPE=NODE,NAME=S_NS_ARM_SPIDER
NS_ARM_SPIDER,
*SURFACE,TYPE=NODE,NAME=S_NS_M5_1
NS_M5_1,
*SURFACE,TYPE=NODE,NAME=S_NS_M5_2
NS_M5_2,
*SURFACE,TYPE=NODE,NAME=S_NS_M5_3
NS_M5_3,
*SURFACE,TYPE=NODE,NAME=S_NS_M5_4
NS_M5_4,
*SURFACE,TYPE=NODE,NAME=S_NS_M5_5
NS_M5_5,
*SURFACE,TYPE=NODE,NAME=S_NS_M5_6
NS_M5_6,
*SURFACE,TYPE=NODE,NAME=S_NS_M5_7
NS_M5_7,
*SURFACE,TYPE=NODE,NAME=S_NS_M5_8
NS_M5_8,
*SURFACE,TYPE=NODE,NAME=S_NS_M6_1
NS_M6_1,
*SURFACE,TYPE=NODE,NAME=S_NS_M6_2
NS_M6_2,
*SURFACE,TYPE=NODE,NAME=S_NS_M6_3
NS_M6_3,
*SURFACE,TYPE=NODE,NAME=S_NS_M6_4
NS_M6_4,
*COUPLING,CONSTRAINT NAME=M6_1,REF NODE=99000100,SURFACE=S_NS_M6_1
*KINEMATIC
1,6
*COUPLING,CONSTRAINT NAME=M6_2,REF NODE=99000101,SURFACE=S_NS_M6_2
*KINEMATIC
1,6
*COUPLING,CONSTRAINT NAME=M6_3,REF NODE=99000102,SURFACE=S_NS_M6_3
*KINEMATIC
1,6
*COUPLING,CONSTRAINT NAME=M6_4,REF NODE=99000103,SURFACE=S_NS_M6_4
*KINEMATIC
1,6
*COUPLING,CONSTRAINT NAME=M5_1,REF NODE=99000200,SURFACE=S_NS_M5_1
*KINEMATIC
1,6
*COUPLING,CONSTRAINT NAME=M5_2,REF NODE=99000201,SURFACE=S_NS_M5_2
*KINEMATIC
1,6
*COUPLING,CONSTRAINT NAME=M5_3,REF NODE=99000202,SURFACE=S_NS_M5_3
*KINEMATIC
1,6
*COUPLING,CONSTRAINT NAME=M5_4,REF NODE=99000203,SURFACE=S_NS_M5_4
*KINEMATIC
1,6
*COUPLING,CONSTRAINT NAME=M5_5,REF NODE=99000204,SURFACE=S_NS_M5_5
*KINEMATIC
1,6
*COUPLING,CONSTRAINT NAME=M5_6,REF NODE=99000205,SURFACE=S_NS_M5_6
*KINEMATIC
1,6
*COUPLING,CONSTRAINT NAME=M5_7,REF NODE=99000206,SURFACE=S_NS_M5_7
*KINEMATIC
1,6
*COUPLING,CONSTRAINT NAME=M5_8,REF NODE=99000207,SURFACE=S_NS_M5_8
*KINEMATIC
1,6
*COUPLING,CONSTRAINT NAME=ARM_SPIDER,REF NODE=99000000,SURFACE=S_NS_ARM_SPIDER
*KINEMATIC
1,6
*STEP,NAME=QS_STEP,NLGEOM=NO
*STATIC
1.0,1.0
*CLOAD
99000000,2,7.21244
99000000,6,1846.1363212000001
*NODE PRINT,NSET=NFIXED
RF
*NODE PRINT,NSET=NRP
U
*EL PRINT,ELSET=EPROBES
S
*ENERGY PRINT
*OUTPUT,FIELD,VARIABLE=PRESELECT
*OUTPUT,HISTORY
*ENERGY OUTPUT
*END STEP
