*HEADING
FEA1B_M3R_INTERFACE  case=ARM_MANEUVER_QS  mesh=L2_MM_MEDIUM  eltype=C3D8I  material=AL6061_T6_CAND
M7 WP7 FEA_OPERATIONAL element-formulation closure (ODR-11/ODR-12).
Units: N, mm, MPa, tonne. Linear static. DESIGN_INDICATIVE results only.
** ELEMENT_FORMULATION: C3D8I -- incompatible-mode 8-node hex, 2x2x2 full integration, no hourglass modes, incompatible modes relieve shear locking in bending-dominated thin features (PRIMARY choice)
** MESH_SERIES: MESH_MATCHED  n_xy=16 (pitch 10 mm)  kz=1
** ASSUMPTION: LINEAR_STATIC_SMALL_DISPLACEMENT (NLGEOM off; loads are milli-g level)
** ASSUMPTION: BUS_SIDE_ENCASTRE_ASSUMPTION: BC-BUS-001 bus stiffness authority is HOLD; z=0 face fully clamped = stiff-boundary design bound
** ASSUMPTION: BOLT_DISK_KINEMATIC_COUPLING_ASSUMPTION: M6/M5/M4 joints modelled as rigid coupling disks (r_b=12/10/10 mm, auto-grow to >=1 node/face, recorded); no preload, no friction, no slip
** ASSUMPTION: ARM_BASE_RIGID_SPIDER_ASSUMPTION: B601 base flange stiffness >> 8 mm ring; single RP spider onto 4 as-built M4 disks; sensitivity covered by the 3-level mesh convergence series (CDR rigid_spider rule)
** ASSUMPTION: NO_CONTACT_NO_PRELOAD_NO_FRICTION: CDR joint mechanics HOLD; faces outside bolt disks untied (separation/interpenetration possible; Level-1 bound)
** ASSUMPTION: STAGE_B_IDEALIZED_ANNULAR_PLATE: pocket/recess not resolved; bore dia100 through bottom 2 layers; centre web r<50 modelled 4.0 mm (real 5.595)
** ASSUMPTION: STAGE_A_IDEALIZED_UNIFORM_RING: OD150/ID40 x 8.0 uniform; spigot, recess, counterbores not resolved
** ASSUMPTION: BRIDGE_CORNER_RADIUS_OMITTED: R4 corners modelled square; all boundaries stepped at element corners
** ASSUMPTION: SMALL_HOLES_NOT_CUT: dia6.6/5.5/4.6 holes represented by coupling disks, not voids (locally stiffer); hole-edge peak stress NOT qualified here
** ASSUMPTION: POISSON_ASSUMPTION: nu=0.33 for both Al candidates (not in M6 library)
** ASSUMPTION: MATERIALS_CANDIDATE: 6061-T6 / 7075-T651 elastic constants from M6 WP4 library, classification PROTOTYPE_CANDIDATE; margins DESIGN_INDICATIVE only
** ASSUMPTION: DYNAMIC_FACTOR_ASSUMPTION: quasi-static equivalence F_eq=DAF*J/dt, DAF=2.0, dt=0.1 s; both declared assumptions, research-bound
** ASSUMPTION: LOAD_DIRECTION_ASSUMPTION: transverse +y force plus bending moment about +z; worst-axis alignment declared (near-axisymmetric stack)
** ASSUMPTION: MEMORY_GATE_MESH_ADAPTATION: seeds 16/10/8 mm replace draft 4/2/1 mm; <=4000 C3D8R; 6.7 mm ligament NOT resolved with 3 elements; convergence assessed on global maxima trend only
** ASSUMPTION: ARM_LOADS_BOUNDED_BY_ASSUMPTION: quintic peak accel from LC-010 trajectory x r_eff=0.7 m; e-stop = 2x maneuver; arm inertia tensor not reduced (arm cases shown to be non-governing)
** ASSUMPTION: ELEMENT_FORMULATION_CHANGE: C3D8R (1 IP + hourglass control) replaced by C3D8I (2x2x2 full integration + incompatible modes). No hourglass modes exist in C3D8I, so ALLAE must collapse to ~0; this is the acceptance test
** ASSUMPTION: IP_COUNT_COMPARABILITY: C3D8R reports 1 centroidal integration point, so its 'peak von Mises' is already an element-average; C3D8I reports 8 Gauss points, whose peak is systematically above the element average in a bending field. C3D8R peak must therefore be compared against the C3D8I ELEMENT-AVERAGED value, not against the C3D8I peak IP value
** ASSUMPTION: THROUGH_THICKNESS_REFINEMENT: kz multiplies the layer count of every z segment (bridge 2kz, stage B annulus 2kz, stage B web 1kz, stage A 2kz); kz=1 reproduces the FEA-1 plane list node-for-node
** ASSUMPTION: STAIRCASE_BOUNDARY_SINGULARITY: the dia-40 / dia-100 / OD-150 circular boundaries are stepped at element corners, so each in-plane refinement level presents a DIFFERENT discrete re-entrant-corner set. Peak stress at those steps cannot converge by construction and is excluded from the region-stress convergence metric (fixed 10 mm geometric band)
** ASSUMPTION: POINT_COUPLING_SINGULARITY: the arm-base RP kinematic coupling and the per-bolt kinematic couplings are point/patch constraints; peak stress in their immediate neighbourhood rises monotonically with refinement as a constraint singularity and is reported separately (ODR-11 singularity rule), with a fixed 15 mm exclusion radius for the far-field metric
** Case load: F_y=0.31050820236037147 N, M_z=217.35574165226001 N*mm (m_arm*(quintic q2_acc_max*r_eff); M=F*r_eff)
**
*NODE
1000001,-80.000000,-80.000000,0.000000
1000002,-70.000000,-80.000000,0.000000
1000003,-60.000000,-80.000000,0.000000
1000004,-50.000000,-80.000000,0.000000
1000005,-40.000000,-80.000000,0.000000
1000006,-30.000000,-80.000000,0.000000
1000007,-20.000000,-80.000000,0.000000
1000008,-10.000000,-80.000000,0.000000
1000009,0.000000,-80.000000,0.000000
1000010,10.000000,-80.000000,0.000000
1000011,20.000000,-80.000000,0.000000
1000012,30.000000,-80.000000,0.000000
1000013,40.000000,-80.000000,0.000000
1000014,50.000000,-80.000000,0.000000
1000015,60.000000,-80.000000,0.000000
1000016,70.000000,-80.000000,0.000000
1000017,80.000000,-80.000000,0.000000
1001001,-80.000000,-70.000000,0.000000
1001002,-70.000000,-70.000000,0.000000
1001003,-60.000000,-70.000000,0.000000
1001004,-50.000000,-70.000000,0.000000
1001005,-40.000000,-70.000000,0.000000
1001006,-30.000000,-70.000000,0.000000
1001007,-20.000000,-70.000000,0.000000
1001008,-10.000000,-70.000000,0.000000
1001009,0.000000,-70.000000,0.000000
1001010,10.000000,-70.000000,0.000000
1001011,20.000000,-70.000000,0.000000
1001012,30.000000,-70.000000,0.000000
1001013,40.000000,-70.000000,0.000000
1001014,50.000000,-70.000000,0.000000
1001015,60.000000,-70.000000,0.000000
1001016,70.000000,-70.000000,0.000000
1001017,80.000000,-70.000000,0.000000
1002001,-80.000000,-60.000000,0.000000
1002002,-70.000000,-60.000000,0.000000
1002003,-60.000000,-60.000000,0.000000
1002004,-50.000000,-60.000000,0.000000
1002005,-40.000000,-60.000000,0.000000
1002006,-30.000000,-60.000000,0.000000
1002007,-20.000000,-60.000000,0.000000
1002008,-10.000000,-60.000000,0.000000
1002009,0.000000,-60.000000,0.000000
1002010,10.000000,-60.000000,0.000000
1002011,20.000000,-60.000000,0.000000
1002012,30.000000,-60.000000,0.000000
1002013,40.000000,-60.000000,0.000000
1002014,50.000000,-60.000000,0.000000
1002015,60.000000,-60.000000,0.000000
1002016,70.000000,-60.000000,0.000000
1002017,80.000000,-60.000000,0.000000
1003001,-80.000000,-50.000000,0.000000
1003002,-70.000000,-50.000000,0.000000
1003003,-60.000000,-50.000000,0.000000
1003004,-50.000000,-50.000000,0.000000
1003005,-40.000000,-50.000000,0.000000
1003006,-30.000000,-50.000000,0.000000
1003007,-20.000000,-50.000000,0.000000
1003008,-10.000000,-50.000000,0.000000
1003009,0.000000,-50.000000,0.000000
1003010,10.000000,-50.000000,0.000000
1003011,20.000000,-50.000000,0.000000
1003012,30.000000,-50.000000,0.000000
1003013,40.000000,-50.000000,0.000000
1003014,50.000000,-50.000000,0.000000
1003015,60.000000,-50.000000,0.000000
1003016,70.000000,-50.000000,0.000000
1003017,80.000000,-50.000000,0.000000
1004001,-80.000000,-40.000000,0.000000
1004002,-70.000000,-40.000000,0.000000
1004003,-60.000000,-40.000000,0.000000
1004004,-50.000000,-40.000000,0.000000
1004005,-40.000000,-40.000000,0.000000
1004006,-30.000000,-40.000000,0.000000
1004007,-20.000000,-40.000000,0.000000
1004008,-10.000000,-40.000000,0.000000
1004009,0.000000,-40.000000,0.000000
1004010,10.000000,-40.000000,0.000000
1004011,20.000000,-40.000000,0.000000
1004012,30.000000,-40.000000,0.000000
1004013,40.000000,-40.000000,0.000000
1004014,50.000000,-40.000000,0.000000
1004015,60.000000,-40.000000,0.000000
1004016,70.000000,-40.000000,0.000000
1004017,80.000000,-40.000000,0.000000
1005001,-80.000000,-30.000000,0.000000
1005002,-70.000000,-30.000000,0.000000
1005003,-60.000000,-30.000000,0.000000
1005004,-50.000000,-30.000000,0.000000
1005005,-40.000000,-30.000000,0.000000
1005006,-30.000000,-30.000000,0.000000
1005007,-20.000000,-30.000000,0.000000
1005008,-10.000000,-30.000000,0.000000
1005009,0.000000,-30.000000,0.000000
1005010,10.000000,-30.000000,0.000000
1005011,20.000000,-30.000000,0.000000
1005012,30.000000,-30.000000,0.000000
1005013,40.000000,-30.000000,0.000000
1005014,50.000000,-30.000000,0.000000
1005015,60.000000,-30.000000,0.000000
1005016,70.000000,-30.000000,0.000000
1005017,80.000000,-30.000000,0.000000
1006001,-80.000000,-20.000000,0.000000
1006002,-70.000000,-20.000000,0.000000
1006003,-60.000000,-20.000000,0.000000
1006004,-50.000000,-20.000000,0.000000
1006005,-40.000000,-20.000000,0.000000
1006006,-30.000000,-20.000000,0.000000
1006007,-20.000000,-20.000000,0.000000
1006008,-10.000000,-20.000000,0.000000
1006009,0.000000,-20.000000,0.000000
1006010,10.000000,-20.000000,0.000000
1006011,20.000000,-20.000000,0.000000
1006012,30.000000,-20.000000,0.000000
1006013,40.000000,-20.000000,0.000000
1006014,50.000000,-20.000000,0.000000
1006015,60.000000,-20.000000,0.000000
1006016,70.000000,-20.000000,0.000000
1006017,80.000000,-20.000000,0.000000
1007001,-80.000000,-10.000000,0.000000
1007002,-70.000000,-10.000000,0.000000
1007003,-60.000000,-10.000000,0.000000
1007004,-50.000000,-10.000000,0.000000
1007005,-40.000000,-10.000000,0.000000
1007006,-30.000000,-10.000000,0.000000
1007007,-20.000000,-10.000000,0.000000
1007011,20.000000,-10.000000,0.000000
1007012,30.000000,-10.000000,0.000000
1007013,40.000000,-10.000000,0.000000
1007014,50.000000,-10.000000,0.000000
1007015,60.000000,-10.000000,0.000000
1007016,70.000000,-10.000000,0.000000
1007017,80.000000,-10.000000,0.000000
1008001,-80.000000,0.000000,0.000000
1008002,-70.000000,0.000000,0.000000
1008003,-60.000000,0.000000,0.000000
1008004,-50.000000,0.000000,0.000000
1008005,-40.000000,0.000000,0.000000
1008006,-30.000000,0.000000,0.000000
1008007,-20.000000,0.000000,0.000000
1008011,20.000000,0.000000,0.000000
1008012,30.000000,0.000000,0.000000
1008013,40.000000,0.000000,0.000000
1008014,50.000000,0.000000,0.000000
1008015,60.000000,0.000000,0.000000
1008016,70.000000,0.000000,0.000000
1008017,80.000000,0.000000,0.000000
1009001,-80.000000,10.000000,0.000000
1009002,-70.000000,10.000000,0.000000
1009003,-60.000000,10.000000,0.000000
1009004,-50.000000,10.000000,0.000000
1009005,-40.000000,10.000000,0.000000
1009006,-30.000000,10.000000,0.000000
1009007,-20.000000,10.000000,0.000000
1009011,20.000000,10.000000,0.000000
1009012,30.000000,10.000000,0.000000
1009013,40.000000,10.000000,0.000000
1009014,50.000000,10.000000,0.000000
1009015,60.000000,10.000000,0.000000
1009016,70.000000,10.000000,0.000000
1009017,80.000000,10.000000,0.000000
1010001,-80.000000,20.000000,0.000000
1010002,-70.000000,20.000000,0.000000
1010003,-60.000000,20.000000,0.000000
1010004,-50.000000,20.000000,0.000000
1010005,-40.000000,20.000000,0.000000
1010006,-30.000000,20.000000,0.000000
1010007,-20.000000,20.000000,0.000000
1010008,-10.000000,20.000000,0.000000
1010009,0.000000,20.000000,0.000000
1010010,10.000000,20.000000,0.000000
1010011,20.000000,20.000000,0.000000
1010012,30.000000,20.000000,0.000000
1010013,40.000000,20.000000,0.000000
1010014,50.000000,20.000000,0.000000
1010015,60.000000,20.000000,0.000000
1010016,70.000000,20.000000,0.000000
1010017,80.000000,20.000000,0.000000
1011001,-80.000000,30.000000,0.000000
1011002,-70.000000,30.000000,0.000000
1011003,-60.000000,30.000000,0.000000
1011004,-50.000000,30.000000,0.000000
1011005,-40.000000,30.000000,0.000000
1011006,-30.000000,30.000000,0.000000
1011007,-20.000000,30.000000,0.000000
1011008,-10.000000,30.000000,0.000000
1011009,0.000000,30.000000,0.000000
1011010,10.000000,30.000000,0.000000
1011011,20.000000,30.000000,0.000000
1011012,30.000000,30.000000,0.000000
1011013,40.000000,30.000000,0.000000
1011014,50.000000,30.000000,0.000000
1011015,60.000000,30.000000,0.000000
1011016,70.000000,30.000000,0.000000
1011017,80.000000,30.000000,0.000000
1012001,-80.000000,40.000000,0.000000
1012002,-70.000000,40.000000,0.000000
1012003,-60.000000,40.000000,0.000000
1012004,-50.000000,40.000000,0.000000
1012005,-40.000000,40.000000,0.000000
1012006,-30.000000,40.000000,0.000000
1012007,-20.000000,40.000000,0.000000
1012008,-10.000000,40.000000,0.000000
1012009,0.000000,40.000000,0.000000
1012010,10.000000,40.000000,0.000000
1012011,20.000000,40.000000,0.000000
1012012,30.000000,40.000000,0.000000
1012013,40.000000,40.000000,0.000000
1012014,50.000000,40.000000,0.000000
1012015,60.000000,40.000000,0.000000
1012016,70.000000,40.000000,0.000000
1012017,80.000000,40.000000,0.000000
1013001,-80.000000,50.000000,0.000000
1013002,-70.000000,50.000000,0.000000
1013003,-60.000000,50.000000,0.000000
1013004,-50.000000,50.000000,0.000000
1013005,-40.000000,50.000000,0.000000
1013006,-30.000000,50.000000,0.000000
1013007,-20.000000,50.000000,0.000000
1013008,-10.000000,50.000000,0.000000
1013009,0.000000,50.000000,0.000000
1013010,10.000000,50.000000,0.000000
1013011,20.000000,50.000000,0.000000
1013012,30.000000,50.000000,0.000000
1013013,40.000000,50.000000,0.000000
1013014,50.000000,50.000000,0.000000
1013015,60.000000,50.000000,0.000000
1013016,70.000000,50.000000,0.000000
1013017,80.000000,50.000000,0.000000
1014001,-80.000000,60.000000,0.000000
1014002,-70.000000,60.000000,0.000000
1014003,-60.000000,60.000000,0.000000
1014004,-50.000000,60.000000,0.000000
1014005,-40.000000,60.000000,0.000000
1014006,-30.000000,60.000000,0.000000
1014007,-20.000000,60.000000,0.000000
1014008,-10.000000,60.000000,0.000000
1014009,0.000000,60.000000,0.000000
1014010,10.000000,60.000000,0.000000
1014011,20.000000,60.000000,0.000000
1014012,30.000000,60.000000,0.000000
1014013,40.000000,60.000000,0.000000
1014014,50.000000,60.000000,0.000000
1014015,60.000000,60.000000,0.000000
1014016,70.000000,60.000000,0.000000
1014017,80.000000,60.000000,0.000000
1015001,-80.000000,70.000000,0.000000
1015002,-70.000000,70.000000,0.000000
1015003,-60.000000,70.000000,0.000000
1015004,-50.000000,70.000000,0.000000
1015005,-40.000000,70.000000,0.000000
1015006,-30.000000,70.000000,0.000000
1015007,-20.000000,70.000000,0.000000
1015008,-10.000000,70.000000,0.000000
1015009,0.000000,70.000000,0.000000
1015010,10.000000,70.000000,0.000000
1015011,20.000000,70.000000,0.000000
1015012,30.000000,70.000000,0.000000
1015013,40.000000,70.000000,0.000000
1015014,50.000000,70.000000,0.000000
1015015,60.000000,70.000000,0.000000
1015016,70.000000,70.000000,0.000000
1015017,80.000000,70.000000,0.000000
1016001,-80.000000,80.000000,0.000000
1016002,-70.000000,80.000000,0.000000
1016003,-60.000000,80.000000,0.000000
1016004,-50.000000,80.000000,0.000000
1016005,-40.000000,80.000000,0.000000
1016006,-30.000000,80.000000,0.000000
1016007,-20.000000,80.000000,0.000000
1016008,-10.000000,80.000000,0.000000
1016009,0.000000,80.000000,0.000000
1016010,10.000000,80.000000,0.000000
1016011,20.000000,80.000000,0.000000
1016012,30.000000,80.000000,0.000000
1016013,40.000000,80.000000,0.000000
1016014,50.000000,80.000000,0.000000
1016015,60.000000,80.000000,0.000000
1016016,70.000000,80.000000,0.000000
1016017,80.000000,80.000000,0.000000
2000001,-80.000000,-80.000000,5.375000
2000002,-70.000000,-80.000000,5.375000
2000003,-60.000000,-80.000000,5.375000
2000004,-50.000000,-80.000000,5.375000
2000005,-40.000000,-80.000000,5.375000
2000006,-30.000000,-80.000000,5.375000
2000007,-20.000000,-80.000000,5.375000
2000008,-10.000000,-80.000000,5.375000
2000009,0.000000,-80.000000,5.375000
2000010,10.000000,-80.000000,5.375000
2000011,20.000000,-80.000000,5.375000
2000012,30.000000,-80.000000,5.375000
2000013,40.000000,-80.000000,5.375000
2000014,50.000000,-80.000000,5.375000
2000015,60.000000,-80.000000,5.375000
2000016,70.000000,-80.000000,5.375000
2000017,80.000000,-80.000000,5.375000
2001001,-80.000000,-70.000000,5.375000
2001002,-70.000000,-70.000000,5.375000
2001003,-60.000000,-70.000000,5.375000
2001004,-50.000000,-70.000000,5.375000
2001005,-40.000000,-70.000000,5.375000
2001006,-30.000000,-70.000000,5.375000
2001007,-20.000000,-70.000000,5.375000
2001008,-10.000000,-70.000000,5.375000
2001009,0.000000,-70.000000,5.375000
2001010,10.000000,-70.000000,5.375000
2001011,20.000000,-70.000000,5.375000
2001012,30.000000,-70.000000,5.375000
2001013,40.000000,-70.000000,5.375000
2001014,50.000000,-70.000000,5.375000
2001015,60.000000,-70.000000,5.375000
2001016,70.000000,-70.000000,5.375000
2001017,80.000000,-70.000000,5.375000
2002001,-80.000000,-60.000000,5.375000
2002002,-70.000000,-60.000000,5.375000
2002003,-60.000000,-60.000000,5.375000
2002004,-50.000000,-60.000000,5.375000
2002005,-40.000000,-60.000000,5.375000
2002006,-30.000000,-60.000000,5.375000
2002007,-20.000000,-60.000000,5.375000
2002008,-10.000000,-60.000000,5.375000
2002009,0.000000,-60.000000,5.375000
2002010,10.000000,-60.000000,5.375000
2002011,20.000000,-60.000000,5.375000
2002012,30.000000,-60.000000,5.375000
2002013,40.000000,-60.000000,5.375000
2002014,50.000000,-60.000000,5.375000
2002015,60.000000,-60.000000,5.375000
2002016,70.000000,-60.000000,5.375000
2002017,80.000000,-60.000000,5.375000
2003001,-80.000000,-50.000000,5.375000
2003002,-70.000000,-50.000000,5.375000
2003003,-60.000000,-50.000000,5.375000
2003004,-50.000000,-50.000000,5.375000
2003005,-40.000000,-50.000000,5.375000
2003006,-30.000000,-50.000000,5.375000
2003007,-20.000000,-50.000000,5.375000
2003008,-10.000000,-50.000000,5.375000
2003009,0.000000,-50.000000,5.375000
2003010,10.000000,-50.000000,5.375000
2003011,20.000000,-50.000000,5.375000
2003012,30.000000,-50.000000,5.375000
2003013,40.000000,-50.000000,5.375000
2003014,50.000000,-50.000000,5.375000
2003015,60.000000,-50.000000,5.375000
2003016,70.000000,-50.000000,5.375000
2003017,80.000000,-50.000000,5.375000
2004001,-80.000000,-40.000000,5.375000
2004002,-70.000000,-40.000000,5.375000
2004003,-60.000000,-40.000000,5.375000
2004004,-50.000000,-40.000000,5.375000
2004005,-40.000000,-40.000000,5.375000
2004006,-30.000000,-40.000000,5.375000
2004007,-20.000000,-40.000000,5.375000
2004008,-10.000000,-40.000000,5.375000
2004009,0.000000,-40.000000,5.375000
2004010,10.000000,-40.000000,5.375000
2004011,20.000000,-40.000000,5.375000
2004012,30.000000,-40.000000,5.375000
2004013,40.000000,-40.000000,5.375000
2004014,50.000000,-40.000000,5.375000
2004015,60.000000,-40.000000,5.375000
2004016,70.000000,-40.000000,5.375000
2004017,80.000000,-40.000000,5.375000
2005001,-80.000000,-30.000000,5.375000
2005002,-70.000000,-30.000000,5.375000
2005003,-60.000000,-30.000000,5.375000
2005004,-50.000000,-30.000000,5.375000
2005005,-40.000000,-30.000000,5.375000
2005006,-30.000000,-30.000000,5.375000
2005007,-20.000000,-30.000000,5.375000
2005008,-10.000000,-30.000000,5.375000
2005009,0.000000,-30.000000,5.375000
2005010,10.000000,-30.000000,5.375000
2005011,20.000000,-30.000000,5.375000
2005012,30.000000,-30.000000,5.375000
2005013,40.000000,-30.000000,5.375000
2005014,50.000000,-30.000000,5.375000
2005015,60.000000,-30.000000,5.375000
2005016,70.000000,-30.000000,5.375000
2005017,80.000000,-30.000000,5.375000
2006001,-80.000000,-20.000000,5.375000
2006002,-70.000000,-20.000000,5.375000
2006003,-60.000000,-20.000000,5.375000
2006004,-50.000000,-20.000000,5.375000
2006005,-40.000000,-20.000000,5.375000
2006006,-30.000000,-20.000000,5.375000
2006007,-20.000000,-20.000000,5.375000
2006008,-10.000000,-20.000000,5.375000
2006009,0.000000,-20.000000,5.375000
2006010,10.000000,-20.000000,5.375000
2006011,20.000000,-20.000000,5.375000
2006012,30.000000,-20.000000,5.375000
2006013,40.000000,-20.000000,5.375000
2006014,50.000000,-20.000000,5.375000
2006015,60.000000,-20.000000,5.375000
2006016,70.000000,-20.000000,5.375000
2006017,80.000000,-20.000000,5.375000
2007001,-80.000000,-10.000000,5.375000
2007002,-70.000000,-10.000000,5.375000
2007003,-60.000000,-10.000000,5.375000
2007004,-50.000000,-10.000000,5.375000
2007005,-40.000000,-10.000000,5.375000
2007006,-30.000000,-10.000000,5.375000
2007007,-20.000000,-10.000000,5.375000
2007011,20.000000,-10.000000,5.375000
2007012,30.000000,-10.000000,5.375000
2007013,40.000000,-10.000000,5.375000
2007014,50.000000,-10.000000,5.375000
2007015,60.000000,-10.000000,5.375000
2007016,70.000000,-10.000000,5.375000
2007017,80.000000,-10.000000,5.375000
2008001,-80.000000,0.000000,5.375000
2008002,-70.000000,0.000000,5.375000
2008003,-60.000000,0.000000,5.375000
2008004,-50.000000,0.000000,5.375000
2008005,-40.000000,0.000000,5.375000
2008006,-30.000000,0.000000,5.375000
2008007,-20.000000,0.000000,5.375000
2008011,20.000000,0.000000,5.375000
2008012,30.000000,0.000000,5.375000
2008013,40.000000,0.000000,5.375000
2008014,50.000000,0.000000,5.375000
2008015,60.000000,0.000000,5.375000
2008016,70.000000,0.000000,5.375000
2008017,80.000000,0.000000,5.375000
2009001,-80.000000,10.000000,5.375000
2009002,-70.000000,10.000000,5.375000
2009003,-60.000000,10.000000,5.375000
2009004,-50.000000,10.000000,5.375000
2009005,-40.000000,10.000000,5.375000
2009006,-30.000000,10.000000,5.375000
2009007,-20.000000,10.000000,5.375000
2009011,20.000000,10.000000,5.375000
2009012,30.000000,10.000000,5.375000
2009013,40.000000,10.000000,5.375000
2009014,50.000000,10.000000,5.375000
2009015,60.000000,10.000000,5.375000
2009016,70.000000,10.000000,5.375000
2009017,80.000000,10.000000,5.375000
2010001,-80.000000,20.000000,5.375000
2010002,-70.000000,20.000000,5.375000
2010003,-60.000000,20.000000,5.375000
2010004,-50.000000,20.000000,5.375000
2010005,-40.000000,20.000000,5.375000
2010006,-30.000000,20.000000,5.375000
2010007,-20.000000,20.000000,5.375000
2010008,-10.000000,20.000000,5.375000
2010009,0.000000,20.000000,5.375000
2010010,10.000000,20.000000,5.375000
2010011,20.000000,20.000000,5.375000
2010012,30.000000,20.000000,5.375000
2010013,40.000000,20.000000,5.375000
2010014,50.000000,20.000000,5.375000
2010015,60.000000,20.000000,5.375000
2010016,70.000000,20.000000,5.375000
2010017,80.000000,20.000000,5.375000
2011001,-80.000000,30.000000,5.375000
2011002,-70.000000,30.000000,5.375000
2011003,-60.000000,30.000000,5.375000
2011004,-50.000000,30.000000,5.375000
2011005,-40.000000,30.000000,5.375000
2011006,-30.000000,30.000000,5.375000
2011007,-20.000000,30.000000,5.375000
2011008,-10.000000,30.000000,5.375000
2011009,0.000000,30.000000,5.375000
2011010,10.000000,30.000000,5.375000
2011011,20.000000,30.000000,5.375000
2011012,30.000000,30.000000,5.375000
2011013,40.000000,30.000000,5.375000
2011014,50.000000,30.000000,5.375000
2011015,60.000000,30.000000,5.375000
2011016,70.000000,30.000000,5.375000
2011017,80.000000,30.000000,5.375000
2012001,-80.000000,40.000000,5.375000
2012002,-70.000000,40.000000,5.375000
2012003,-60.000000,40.000000,5.375000
2012004,-50.000000,40.000000,5.375000
2012005,-40.000000,40.000000,5.375000
2012006,-30.000000,40.000000,5.375000
2012007,-20.000000,40.000000,5.375000
2012008,-10.000000,40.000000,5.375000
2012009,0.000000,40.000000,5.375000
2012010,10.000000,40.000000,5.375000
2012011,20.000000,40.000000,5.375000
2012012,30.000000,40.000000,5.375000
2012013,40.000000,40.000000,5.375000
2012014,50.000000,40.000000,5.375000
2012015,60.000000,40.000000,5.375000
2012016,70.000000,40.000000,5.375000
2012017,80.000000,40.000000,5.375000
2013001,-80.000000,50.000000,5.375000
2013002,-70.000000,50.000000,5.375000
2013003,-60.000000,50.000000,5.375000
2013004,-50.000000,50.000000,5.375000
2013005,-40.000000,50.000000,5.375000
2013006,-30.000000,50.000000,5.375000
2013007,-20.000000,50.000000,5.375000
2013008,-10.000000,50.000000,5.375000
2013009,0.000000,50.000000,5.375000
2013010,10.000000,50.000000,5.375000
2013011,20.000000,50.000000,5.375000
2013012,30.000000,50.000000,5.375000
2013013,40.000000,50.000000,5.375000
2013014,50.000000,50.000000,5.375000
2013015,60.000000,50.000000,5.375000
2013016,70.000000,50.000000,5.375000
2013017,80.000000,50.000000,5.375000
2014001,-80.000000,60.000000,5.375000
2014002,-70.000000,60.000000,5.375000
2014003,-60.000000,60.000000,5.375000
2014004,-50.000000,60.000000,5.375000
2014005,-40.000000,60.000000,5.375000
2014006,-30.000000,60.000000,5.375000
2014007,-20.000000,60.000000,5.375000
2014008,-10.000000,60.000000,5.375000
2014009,0.000000,60.000000,5.375000
2014010,10.000000,60.000000,5.375000
2014011,20.000000,60.000000,5.375000
2014012,30.000000,60.000000,5.375000
2014013,40.000000,60.000000,5.375000
2014014,50.000000,60.000000,5.375000
2014015,60.000000,60.000000,5.375000
2014016,70.000000,60.000000,5.375000
2014017,80.000000,60.000000,5.375000
2015001,-80.000000,70.000000,5.375000
2015002,-70.000000,70.000000,5.375000
2015003,-60.000000,70.000000,5.375000
2015004,-50.000000,70.000000,5.375000
2015005,-40.000000,70.000000,5.375000
2015006,-30.000000,70.000000,5.375000
2015007,-20.000000,70.000000,5.375000
2015008,-10.000000,70.000000,5.375000
2015009,0.000000,70.000000,5.375000
2015010,10.000000,70.000000,5.375000
2015011,20.000000,70.000000,5.375000
2015012,30.000000,70.000000,5.375000
2015013,40.000000,70.000000,5.375000
2015014,50.000000,70.000000,5.375000
2015015,60.000000,70.000000,5.375000
2015016,70.000000,70.000000,5.375000
2015017,80.000000,70.000000,5.375000
2016001,-80.000000,80.000000,5.375000
2016002,-70.000000,80.000000,5.375000
2016003,-60.000000,80.000000,5.375000
2016004,-50.000000,80.000000,5.375000
2016005,-40.000000,80.000000,5.375000
2016006,-30.000000,80.000000,5.375000
2016007,-20.000000,80.000000,5.375000
2016008,-10.000000,80.000000,5.375000
2016009,0.000000,80.000000,5.375000
2016010,10.000000,80.000000,5.375000
2016011,20.000000,80.000000,5.375000
2016012,30.000000,80.000000,5.375000
2016013,40.000000,80.000000,5.375000
2016014,50.000000,80.000000,5.375000
2016015,60.000000,80.000000,5.375000
2016016,70.000000,80.000000,5.375000
2016017,80.000000,80.000000,5.375000
3000001,-80.000000,-80.000000,10.750000
3000002,-70.000000,-80.000000,10.750000
3000003,-60.000000,-80.000000,10.750000
3000004,-50.000000,-80.000000,10.750000
3000005,-40.000000,-80.000000,10.750000
3000006,-30.000000,-80.000000,10.750000
3000007,-20.000000,-80.000000,10.750000
3000008,-10.000000,-80.000000,10.750000
3000009,0.000000,-80.000000,10.750000
3000010,10.000000,-80.000000,10.750000
3000011,20.000000,-80.000000,10.750000
3000012,30.000000,-80.000000,10.750000
3000013,40.000000,-80.000000,10.750000
3000014,50.000000,-80.000000,10.750000
3000015,60.000000,-80.000000,10.750000
3000016,70.000000,-80.000000,10.750000
3000017,80.000000,-80.000000,10.750000
3001001,-80.000000,-70.000000,10.750000
3001002,-70.000000,-70.000000,10.750000
3001003,-60.000000,-70.000000,10.750000
3001004,-50.000000,-70.000000,10.750000
3001005,-40.000000,-70.000000,10.750000
3001006,-30.000000,-70.000000,10.750000
3001007,-20.000000,-70.000000,10.750000
3001008,-10.000000,-70.000000,10.750000
3001009,0.000000,-70.000000,10.750000
3001010,10.000000,-70.000000,10.750000
3001011,20.000000,-70.000000,10.750000
3001012,30.000000,-70.000000,10.750000
3001013,40.000000,-70.000000,10.750000
3001014,50.000000,-70.000000,10.750000
3001015,60.000000,-70.000000,10.750000
3001016,70.000000,-70.000000,10.750000
3001017,80.000000,-70.000000,10.750000
3002001,-80.000000,-60.000000,10.750000
3002002,-70.000000,-60.000000,10.750000
3002003,-60.000000,-60.000000,10.750000
3002004,-50.000000,-60.000000,10.750000
3002005,-40.000000,-60.000000,10.750000
3002006,-30.000000,-60.000000,10.750000
3002007,-20.000000,-60.000000,10.750000
3002008,-10.000000,-60.000000,10.750000
3002009,0.000000,-60.000000,10.750000
3002010,10.000000,-60.000000,10.750000
3002011,20.000000,-60.000000,10.750000
3002012,30.000000,-60.000000,10.750000
3002013,40.000000,-60.000000,10.750000
3002014,50.000000,-60.000000,10.750000
3002015,60.000000,-60.000000,10.750000
3002016,70.000000,-60.000000,10.750000
3002017,80.000000,-60.000000,10.750000
3003001,-80.000000,-50.000000,10.750000
3003002,-70.000000,-50.000000,10.750000
3003003,-60.000000,-50.000000,10.750000
3003004,-50.000000,-50.000000,10.750000
3003005,-40.000000,-50.000000,10.750000
3003006,-30.000000,-50.000000,10.750000
3003007,-20.000000,-50.000000,10.750000
3003008,-10.000000,-50.000000,10.750000
3003009,0.000000,-50.000000,10.750000
3003010,10.000000,-50.000000,10.750000
3003011,20.000000,-50.000000,10.750000
3003012,30.000000,-50.000000,10.750000
3003013,40.000000,-50.000000,10.750000
3003014,50.000000,-50.000000,10.750000
3003015,60.000000,-50.000000,10.750000
3003016,70.000000,-50.000000,10.750000
3003017,80.000000,-50.000000,10.750000
3004001,-80.000000,-40.000000,10.750000
3004002,-70.000000,-40.000000,10.750000
3004003,-60.000000,-40.000000,10.750000
3004004,-50.000000,-40.000000,10.750000
3004005,-40.000000,-40.000000,10.750000
3004006,-30.000000,-40.000000,10.750000
3004007,-20.000000,-40.000000,10.750000
3004008,-10.000000,-40.000000,10.750000
3004009,0.000000,-40.000000,10.750000
3004010,10.000000,-40.000000,10.750000
3004011,20.000000,-40.000000,10.750000
3004012,30.000000,-40.000000,10.750000
3004013,40.000000,-40.000000,10.750000
3004014,50.000000,-40.000000,10.750000
3004015,60.000000,-40.000000,10.750000
3004016,70.000000,-40.000000,10.750000
3004017,80.000000,-40.000000,10.750000
3005001,-80.000000,-30.000000,10.750000
3005002,-70.000000,-30.000000,10.750000
3005003,-60.000000,-30.000000,10.750000
3005004,-50.000000,-30.000000,10.750000
3005005,-40.000000,-30.000000,10.750000
3005006,-30.000000,-30.000000,10.750000
3005007,-20.000000,-30.000000,10.750000
3005008,-10.000000,-30.000000,10.750000
3005009,0.000000,-30.000000,10.750000
3005010,10.000000,-30.000000,10.750000
3005011,20.000000,-30.000000,10.750000
3005012,30.000000,-30.000000,10.750000
3005013,40.000000,-30.000000,10.750000
3005014,50.000000,-30.000000,10.750000
3005015,60.000000,-30.000000,10.750000
3005016,70.000000,-30.000000,10.750000
3005017,80.000000,-30.000000,10.750000
3006001,-80.000000,-20.000000,10.750000
3006002,-70.000000,-20.000000,10.750000
3006003,-60.000000,-20.000000,10.750000
3006004,-50.000000,-20.000000,10.750000
3006005,-40.000000,-20.000000,10.750000
3006006,-30.000000,-20.000000,10.750000
3006007,-20.000000,-20.000000,10.750000
3006008,-10.000000,-20.000000,10.750000
3006009,0.000000,-20.000000,10.750000
3006010,10.000000,-20.000000,10.750000
3006011,20.000000,-20.000000,10.750000
3006012,30.000000,-20.000000,10.750000
3006013,40.000000,-20.000000,10.750000
3006014,50.000000,-20.000000,10.750000
3006015,60.000000,-20.000000,10.750000
3006016,70.000000,-20.000000,10.750000
3006017,80.000000,-20.000000,10.750000
3007001,-80.000000,-10.000000,10.750000
3007002,-70.000000,-10.000000,10.750000
3007003,-60.000000,-10.000000,10.750000
3007004,-50.000000,-10.000000,10.750000
3007005,-40.000000,-10.000000,10.750000
3007006,-30.000000,-10.000000,10.750000
3007007,-20.000000,-10.000000,10.750000
3007011,20.000000,-10.000000,10.750000
3007012,30.000000,-10.000000,10.750000
3007013,40.000000,-10.000000,10.750000
3007014,50.000000,-10.000000,10.750000
3007015,60.000000,-10.000000,10.750000
3007016,70.000000,-10.000000,10.750000
3007017,80.000000,-10.000000,10.750000
3008001,-80.000000,0.000000,10.750000
3008002,-70.000000,0.000000,10.750000
3008003,-60.000000,0.000000,10.750000
3008004,-50.000000,0.000000,10.750000
3008005,-40.000000,0.000000,10.750000
3008006,-30.000000,0.000000,10.750000
3008007,-20.000000,0.000000,10.750000
3008011,20.000000,0.000000,10.750000
3008012,30.000000,0.000000,10.750000
3008013,40.000000,0.000000,10.750000
3008014,50.000000,0.000000,10.750000
3008015,60.000000,0.000000,10.750000
3008016,70.000000,0.000000,10.750000
3008017,80.000000,0.000000,10.750000
3009001,-80.000000,10.000000,10.750000
3009002,-70.000000,10.000000,10.750000
3009003,-60.000000,10.000000,10.750000
3009004,-50.000000,10.000000,10.750000
3009005,-40.000000,10.000000,10.750000
3009006,-30.000000,10.000000,10.750000
3009007,-20.000000,10.000000,10.750000
3009011,20.000000,10.000000,10.750000
3009012,30.000000,10.000000,10.750000
3009013,40.000000,10.000000,10.750000
3009014,50.000000,10.000000,10.750000
3009015,60.000000,10.000000,10.750000
3009016,70.000000,10.000000,10.750000
3009017,80.000000,10.000000,10.750000
3010001,-80.000000,20.000000,10.750000
3010002,-70.000000,20.000000,10.750000
3010003,-60.000000,20.000000,10.750000
3010004,-50.000000,20.000000,10.750000
3010005,-40.000000,20.000000,10.750000
3010006,-30.000000,20.000000,10.750000
3010007,-20.000000,20.000000,10.750000
3010008,-10.000000,20.000000,10.750000
3010009,0.000000,20.000000,10.750000
3010010,10.000000,20.000000,10.750000
3010011,20.000000,20.000000,10.750000
3010012,30.000000,20.000000,10.750000
3010013,40.000000,20.000000,10.750000
3010014,50.000000,20.000000,10.750000
3010015,60.000000,20.000000,10.750000
3010016,70.000000,20.000000,10.750000
3010017,80.000000,20.000000,10.750000
3011001,-80.000000,30.000000,10.750000
3011002,-70.000000,30.000000,10.750000
3011003,-60.000000,30.000000,10.750000
3011004,-50.000000,30.000000,10.750000
3011005,-40.000000,30.000000,10.750000
3011006,-30.000000,30.000000,10.750000
3011007,-20.000000,30.000000,10.750000
3011008,-10.000000,30.000000,10.750000
3011009,0.000000,30.000000,10.750000
3011010,10.000000,30.000000,10.750000
3011011,20.000000,30.000000,10.750000
3011012,30.000000,30.000000,10.750000
3011013,40.000000,30.000000,10.750000
3011014,50.000000,30.000000,10.750000
3011015,60.000000,30.000000,10.750000
3011016,70.000000,30.000000,10.750000
3011017,80.000000,30.000000,10.750000
3012001,-80.000000,40.000000,10.750000
3012002,-70.000000,40.000000,10.750000
3012003,-60.000000,40.000000,10.750000
3012004,-50.000000,40.000000,10.750000
3012005,-40.000000,40.000000,10.750000
3012006,-30.000000,40.000000,10.750000
3012007,-20.000000,40.000000,10.750000
3012008,-10.000000,40.000000,10.750000
3012009,0.000000,40.000000,10.750000
3012010,10.000000,40.000000,10.750000
3012011,20.000000,40.000000,10.750000
3012012,30.000000,40.000000,10.750000
3012013,40.000000,40.000000,10.750000
3012014,50.000000,40.000000,10.750000
3012015,60.000000,40.000000,10.750000
3012016,70.000000,40.000000,10.750000
3012017,80.000000,40.000000,10.750000
3013001,-80.000000,50.000000,10.750000
3013002,-70.000000,50.000000,10.750000
3013003,-60.000000,50.000000,10.750000
3013004,-50.000000,50.000000,10.750000
3013005,-40.000000,50.000000,10.750000
3013006,-30.000000,50.000000,10.750000
3013007,-20.000000,50.000000,10.750000
3013008,-10.000000,50.000000,10.750000
3013009,0.000000,50.000000,10.750000
3013010,10.000000,50.000000,10.750000
3013011,20.000000,50.000000,10.750000
3013012,30.000000,50.000000,10.750000
3013013,40.000000,50.000000,10.750000
3013014,50.000000,50.000000,10.750000
3013015,60.000000,50.000000,10.750000
3013016,70.000000,50.000000,10.750000
3013017,80.000000,50.000000,10.750000
3014001,-80.000000,60.000000,10.750000
3014002,-70.000000,60.000000,10.750000
3014003,-60.000000,60.000000,10.750000
3014004,-50.000000,60.000000,10.750000
3014005,-40.000000,60.000000,10.750000
3014006,-30.000000,60.000000,10.750000
3014007,-20.000000,60.000000,10.750000
3014008,-10.000000,60.000000,10.750000
3014009,0.000000,60.000000,10.750000
3014010,10.000000,60.000000,10.750000
3014011,20.000000,60.000000,10.750000
3014012,30.000000,60.000000,10.750000
3014013,40.000000,60.000000,10.750000
3014014,50.000000,60.000000,10.750000
3014015,60.000000,60.000000,10.750000
3014016,70.000000,60.000000,10.750000
3014017,80.000000,60.000000,10.750000
3015001,-80.000000,70.000000,10.750000
3015002,-70.000000,70.000000,10.750000
3015003,-60.000000,70.000000,10.750000
3015004,-50.000000,70.000000,10.750000
3015005,-40.000000,70.000000,10.750000
3015006,-30.000000,70.000000,10.750000
3015007,-20.000000,70.000000,10.750000
3015008,-10.000000,70.000000,10.750000
3015009,0.000000,70.000000,10.750000
3015010,10.000000,70.000000,10.750000
3015011,20.000000,70.000000,10.750000
3015012,30.000000,70.000000,10.750000
3015013,40.000000,70.000000,10.750000
3015014,50.000000,70.000000,10.750000
3015015,60.000000,70.000000,10.750000
3015016,70.000000,70.000000,10.750000
3015017,80.000000,70.000000,10.750000
3016001,-80.000000,80.000000,10.750000
3016002,-70.000000,80.000000,10.750000
3016003,-60.000000,80.000000,10.750000
3016004,-50.000000,80.000000,10.750000
3016005,-40.000000,80.000000,10.750000
3016006,-30.000000,80.000000,10.750000
3016007,-20.000000,80.000000,10.750000
3016008,-10.000000,80.000000,10.750000
3016009,0.000000,80.000000,10.750000
3016010,10.000000,80.000000,10.750000
3016011,20.000000,80.000000,10.750000
3016012,30.000000,80.000000,10.750000
3016013,40.000000,80.000000,10.750000
3016014,50.000000,80.000000,10.750000
3016015,60.000000,80.000000,10.750000
3016016,70.000000,80.000000,10.750000
3016017,80.000000,80.000000,10.750000
4000001,-80.000000,-80.000000,10.750000
4000002,-70.000000,-80.000000,10.750000
4000003,-60.000000,-80.000000,10.750000
4000004,-50.000000,-80.000000,10.750000
4000005,-40.000000,-80.000000,10.750000
4000006,-30.000000,-80.000000,10.750000
4000007,-20.000000,-80.000000,10.750000
4000008,-10.000000,-80.000000,10.750000
4000009,0.000000,-80.000000,10.750000
4000010,10.000000,-80.000000,10.750000
4000011,20.000000,-80.000000,10.750000
4000012,30.000000,-80.000000,10.750000
4000013,40.000000,-80.000000,10.750000
4000014,50.000000,-80.000000,10.750000
4000015,60.000000,-80.000000,10.750000
4000016,70.000000,-80.000000,10.750000
4000017,80.000000,-80.000000,10.750000
4001001,-80.000000,-70.000000,10.750000
4001002,-70.000000,-70.000000,10.750000
4001003,-60.000000,-70.000000,10.750000
4001004,-50.000000,-70.000000,10.750000
4001005,-40.000000,-70.000000,10.750000
4001006,-30.000000,-70.000000,10.750000
4001007,-20.000000,-70.000000,10.750000
4001008,-10.000000,-70.000000,10.750000
4001009,0.000000,-70.000000,10.750000
4001010,10.000000,-70.000000,10.750000
4001011,20.000000,-70.000000,10.750000
4001012,30.000000,-70.000000,10.750000
4001013,40.000000,-70.000000,10.750000
4001014,50.000000,-70.000000,10.750000
4001015,60.000000,-70.000000,10.750000
4001016,70.000000,-70.000000,10.750000
4001017,80.000000,-70.000000,10.750000
4002001,-80.000000,-60.000000,10.750000
4002002,-70.000000,-60.000000,10.750000
4002003,-60.000000,-60.000000,10.750000
4002004,-50.000000,-60.000000,10.750000
4002005,-40.000000,-60.000000,10.750000
4002006,-30.000000,-60.000000,10.750000
4002007,-20.000000,-60.000000,10.750000
4002008,-10.000000,-60.000000,10.750000
4002009,0.000000,-60.000000,10.750000
4002010,10.000000,-60.000000,10.750000
4002011,20.000000,-60.000000,10.750000
4002012,30.000000,-60.000000,10.750000
4002013,40.000000,-60.000000,10.750000
4002014,50.000000,-60.000000,10.750000
4002015,60.000000,-60.000000,10.750000
4002016,70.000000,-60.000000,10.750000
4002017,80.000000,-60.000000,10.750000
4003001,-80.000000,-50.000000,10.750000
4003002,-70.000000,-50.000000,10.750000
4003003,-60.000000,-50.000000,10.750000
4003004,-50.000000,-50.000000,10.750000
4003005,-40.000000,-50.000000,10.750000
4003006,-30.000000,-50.000000,10.750000
4003007,-20.000000,-50.000000,10.750000
4003008,-10.000000,-50.000000,10.750000
4003009,0.000000,-50.000000,10.750000
4003010,10.000000,-50.000000,10.750000
4003011,20.000000,-50.000000,10.750000
4003012,30.000000,-50.000000,10.750000
4003013,40.000000,-50.000000,10.750000
4003014,50.000000,-50.000000,10.750000
4003015,60.000000,-50.000000,10.750000
4003016,70.000000,-50.000000,10.750000
4003017,80.000000,-50.000000,10.750000
4004001,-80.000000,-40.000000,10.750000
4004002,-70.000000,-40.000000,10.750000
4004003,-60.000000,-40.000000,10.750000
4004004,-50.000000,-40.000000,10.750000
4004005,-40.000000,-40.000000,10.750000
4004006,-30.000000,-40.000000,10.750000
4004012,30.000000,-40.000000,10.750000
4004013,40.000000,-40.000000,10.750000
4004014,50.000000,-40.000000,10.750000
4004015,60.000000,-40.000000,10.750000
4004016,70.000000,-40.000000,10.750000
4004017,80.000000,-40.000000,10.750000
4005001,-80.000000,-30.000000,10.750000
4005002,-70.000000,-30.000000,10.750000
4005003,-60.000000,-30.000000,10.750000
4005004,-50.000000,-30.000000,10.750000
4005005,-40.000000,-30.000000,10.750000
4005013,40.000000,-30.000000,10.750000
4005014,50.000000,-30.000000,10.750000
4005015,60.000000,-30.000000,10.750000
4005016,70.000000,-30.000000,10.750000
4005017,80.000000,-30.000000,10.750000
4006001,-80.000000,-20.000000,10.750000
4006002,-70.000000,-20.000000,10.750000
4006003,-60.000000,-20.000000,10.750000
4006004,-50.000000,-20.000000,10.750000
4006014,50.000000,-20.000000,10.750000
4006015,60.000000,-20.000000,10.750000
4006016,70.000000,-20.000000,10.750000
4006017,80.000000,-20.000000,10.750000
4007001,-80.000000,-10.000000,10.750000
4007002,-70.000000,-10.000000,10.750000
4007003,-60.000000,-10.000000,10.750000
4007004,-50.000000,-10.000000,10.750000
4007014,50.000000,-10.000000,10.750000
4007015,60.000000,-10.000000,10.750000
4007016,70.000000,-10.000000,10.750000
4007017,80.000000,-10.000000,10.750000
4008001,-80.000000,0.000000,10.750000
4008002,-70.000000,0.000000,10.750000
4008003,-60.000000,0.000000,10.750000
4008004,-50.000000,0.000000,10.750000
4008014,50.000000,0.000000,10.750000
4008015,60.000000,0.000000,10.750000
4008016,70.000000,0.000000,10.750000
4008017,80.000000,0.000000,10.750000
4009001,-80.000000,10.000000,10.750000
4009002,-70.000000,10.000000,10.750000
4009003,-60.000000,10.000000,10.750000
4009004,-50.000000,10.000000,10.750000
4009014,50.000000,10.000000,10.750000
4009015,60.000000,10.000000,10.750000
4009016,70.000000,10.000000,10.750000
4009017,80.000000,10.000000,10.750000
4010001,-80.000000,20.000000,10.750000
4010002,-70.000000,20.000000,10.750000
4010003,-60.000000,20.000000,10.750000
4010004,-50.000000,20.000000,10.750000
4010014,50.000000,20.000000,10.750000
4010015,60.000000,20.000000,10.750000
4010016,70.000000,20.000000,10.750000
4010017,80.000000,20.000000,10.750000
4011001,-80.000000,30.000000,10.750000
4011002,-70.000000,30.000000,10.750000
4011003,-60.000000,30.000000,10.750000
4011004,-50.000000,30.000000,10.750000
4011005,-40.000000,30.000000,10.750000
4011013,40.000000,30.000000,10.750000
4011014,50.000000,30.000000,10.750000
4011015,60.000000,30.000000,10.750000
4011016,70.000000,30.000000,10.750000
4011017,80.000000,30.000000,10.750000
4012001,-80.000000,40.000000,10.750000
4012002,-70.000000,40.000000,10.750000
4012003,-60.000000,40.000000,10.750000
4012004,-50.000000,40.000000,10.750000
4012005,-40.000000,40.000000,10.750000
4012006,-30.000000,40.000000,10.750000
4012012,30.000000,40.000000,10.750000
4012013,40.000000,40.000000,10.750000
4012014,50.000000,40.000000,10.750000
4012015,60.000000,40.000000,10.750000
4012016,70.000000,40.000000,10.750000
4012017,80.000000,40.000000,10.750000
4013001,-80.000000,50.000000,10.750000
4013002,-70.000000,50.000000,10.750000
4013003,-60.000000,50.000000,10.750000
4013004,-50.000000,50.000000,10.750000
4013005,-40.000000,50.000000,10.750000
4013006,-30.000000,50.000000,10.750000
4013007,-20.000000,50.000000,10.750000
4013008,-10.000000,50.000000,10.750000
4013009,0.000000,50.000000,10.750000
4013010,10.000000,50.000000,10.750000
4013011,20.000000,50.000000,10.750000
4013012,30.000000,50.000000,10.750000
4013013,40.000000,50.000000,10.750000
4013014,50.000000,50.000000,10.750000
4013015,60.000000,50.000000,10.750000
4013016,70.000000,50.000000,10.750000
4013017,80.000000,50.000000,10.750000
4014001,-80.000000,60.000000,10.750000
4014002,-70.000000,60.000000,10.750000
4014003,-60.000000,60.000000,10.750000
4014004,-50.000000,60.000000,10.750000
4014005,-40.000000,60.000000,10.750000
4014006,-30.000000,60.000000,10.750000
4014007,-20.000000,60.000000,10.750000
4014008,-10.000000,60.000000,10.750000
4014009,0.000000,60.000000,10.750000
4014010,10.000000,60.000000,10.750000
4014011,20.000000,60.000000,10.750000
4014012,30.000000,60.000000,10.750000
4014013,40.000000,60.000000,10.750000
4014014,50.000000,60.000000,10.750000
4014015,60.000000,60.000000,10.750000
4014016,70.000000,60.000000,10.750000
4014017,80.000000,60.000000,10.750000
4015001,-80.000000,70.000000,10.750000
4015002,-70.000000,70.000000,10.750000
4015003,-60.000000,70.000000,10.750000
4015004,-50.000000,70.000000,10.750000
4015005,-40.000000,70.000000,10.750000
4015006,-30.000000,70.000000,10.750000
4015007,-20.000000,70.000000,10.750000
4015008,-10.000000,70.000000,10.750000
4015009,0.000000,70.000000,10.750000
4015010,10.000000,70.000000,10.750000
4015011,20.000000,70.000000,10.750000
4015012,30.000000,70.000000,10.750000
4015013,40.000000,70.000000,10.750000
4015014,50.000000,70.000000,10.750000
4015015,60.000000,70.000000,10.750000
4015016,70.000000,70.000000,10.750000
4015017,80.000000,70.000000,10.750000
4016001,-80.000000,80.000000,10.750000
4016002,-70.000000,80.000000,10.750000
4016003,-60.000000,80.000000,10.750000
4016004,-50.000000,80.000000,10.750000
4016005,-40.000000,80.000000,10.750000
4016006,-30.000000,80.000000,10.750000
4016007,-20.000000,80.000000,10.750000
4016008,-10.000000,80.000000,10.750000
4016009,0.000000,80.000000,10.750000
4016010,10.000000,80.000000,10.750000
4016011,20.000000,80.000000,10.750000
4016012,30.000000,80.000000,10.750000
4016013,40.000000,80.000000,10.750000
4016014,50.000000,80.000000,10.750000
4016015,60.000000,80.000000,10.750000
4016016,70.000000,80.000000,10.750000
4016017,80.000000,80.000000,10.750000
5000001,-80.000000,-80.000000,14.750000
5000002,-70.000000,-80.000000,14.750000
5000003,-60.000000,-80.000000,14.750000
5000004,-50.000000,-80.000000,14.750000
5000005,-40.000000,-80.000000,14.750000
5000006,-30.000000,-80.000000,14.750000
5000007,-20.000000,-80.000000,14.750000
5000008,-10.000000,-80.000000,14.750000
5000009,0.000000,-80.000000,14.750000
5000010,10.000000,-80.000000,14.750000
5000011,20.000000,-80.000000,14.750000
5000012,30.000000,-80.000000,14.750000
5000013,40.000000,-80.000000,14.750000
5000014,50.000000,-80.000000,14.750000
5000015,60.000000,-80.000000,14.750000
5000016,70.000000,-80.000000,14.750000
5000017,80.000000,-80.000000,14.750000
5001001,-80.000000,-70.000000,14.750000
5001002,-70.000000,-70.000000,14.750000
5001003,-60.000000,-70.000000,14.750000
5001004,-50.000000,-70.000000,14.750000
5001005,-40.000000,-70.000000,14.750000
5001006,-30.000000,-70.000000,14.750000
5001007,-20.000000,-70.000000,14.750000
5001008,-10.000000,-70.000000,14.750000
5001009,0.000000,-70.000000,14.750000
5001010,10.000000,-70.000000,14.750000
5001011,20.000000,-70.000000,14.750000
5001012,30.000000,-70.000000,14.750000
5001013,40.000000,-70.000000,14.750000
5001014,50.000000,-70.000000,14.750000
5001015,60.000000,-70.000000,14.750000
5001016,70.000000,-70.000000,14.750000
5001017,80.000000,-70.000000,14.750000
5002001,-80.000000,-60.000000,14.750000
5002002,-70.000000,-60.000000,14.750000
5002003,-60.000000,-60.000000,14.750000
5002004,-50.000000,-60.000000,14.750000
5002005,-40.000000,-60.000000,14.750000
5002006,-30.000000,-60.000000,14.750000
5002007,-20.000000,-60.000000,14.750000
5002008,-10.000000,-60.000000,14.750000
5002009,0.000000,-60.000000,14.750000
5002010,10.000000,-60.000000,14.750000
5002011,20.000000,-60.000000,14.750000
5002012,30.000000,-60.000000,14.750000
5002013,40.000000,-60.000000,14.750000
5002014,50.000000,-60.000000,14.750000
5002015,60.000000,-60.000000,14.750000
5002016,70.000000,-60.000000,14.750000
5002017,80.000000,-60.000000,14.750000
5003001,-80.000000,-50.000000,14.750000
5003002,-70.000000,-50.000000,14.750000
5003003,-60.000000,-50.000000,14.750000
5003004,-50.000000,-50.000000,14.750000
5003005,-40.000000,-50.000000,14.750000
5003006,-30.000000,-50.000000,14.750000
5003007,-20.000000,-50.000000,14.750000
5003008,-10.000000,-50.000000,14.750000
5003009,0.000000,-50.000000,14.750000
5003010,10.000000,-50.000000,14.750000
5003011,20.000000,-50.000000,14.750000
5003012,30.000000,-50.000000,14.750000
5003013,40.000000,-50.000000,14.750000
5003014,50.000000,-50.000000,14.750000
5003015,60.000000,-50.000000,14.750000
5003016,70.000000,-50.000000,14.750000
5003017,80.000000,-50.000000,14.750000
5004001,-80.000000,-40.000000,14.750000
5004002,-70.000000,-40.000000,14.750000
5004003,-60.000000,-40.000000,14.750000
5004004,-50.000000,-40.000000,14.750000
5004005,-40.000000,-40.000000,14.750000
5004006,-30.000000,-40.000000,14.750000
5004012,30.000000,-40.000000,14.750000
5004013,40.000000,-40.000000,14.750000
5004014,50.000000,-40.000000,14.750000
5004015,60.000000,-40.000000,14.750000
5004016,70.000000,-40.000000,14.750000
5004017,80.000000,-40.000000,14.750000
5005001,-80.000000,-30.000000,14.750000
5005002,-70.000000,-30.000000,14.750000
5005003,-60.000000,-30.000000,14.750000
5005004,-50.000000,-30.000000,14.750000
5005005,-40.000000,-30.000000,14.750000
5005013,40.000000,-30.000000,14.750000
5005014,50.000000,-30.000000,14.750000
5005015,60.000000,-30.000000,14.750000
5005016,70.000000,-30.000000,14.750000
5005017,80.000000,-30.000000,14.750000
5006001,-80.000000,-20.000000,14.750000
5006002,-70.000000,-20.000000,14.750000
5006003,-60.000000,-20.000000,14.750000
5006004,-50.000000,-20.000000,14.750000
5006014,50.000000,-20.000000,14.750000
5006015,60.000000,-20.000000,14.750000
5006016,70.000000,-20.000000,14.750000
5006017,80.000000,-20.000000,14.750000
5007001,-80.000000,-10.000000,14.750000
5007002,-70.000000,-10.000000,14.750000
5007003,-60.000000,-10.000000,14.750000
5007004,-50.000000,-10.000000,14.750000
5007014,50.000000,-10.000000,14.750000
5007015,60.000000,-10.000000,14.750000
5007016,70.000000,-10.000000,14.750000
5007017,80.000000,-10.000000,14.750000
5008001,-80.000000,0.000000,14.750000
5008002,-70.000000,0.000000,14.750000
5008003,-60.000000,0.000000,14.750000
5008004,-50.000000,0.000000,14.750000
5008014,50.000000,0.000000,14.750000
5008015,60.000000,0.000000,14.750000
5008016,70.000000,0.000000,14.750000
5008017,80.000000,0.000000,14.750000
5009001,-80.000000,10.000000,14.750000
5009002,-70.000000,10.000000,14.750000
5009003,-60.000000,10.000000,14.750000
5009004,-50.000000,10.000000,14.750000
5009014,50.000000,10.000000,14.750000
5009015,60.000000,10.000000,14.750000
5009016,70.000000,10.000000,14.750000
5009017,80.000000,10.000000,14.750000
5010001,-80.000000,20.000000,14.750000
5010002,-70.000000,20.000000,14.750000
5010003,-60.000000,20.000000,14.750000
5010004,-50.000000,20.000000,14.750000
5010014,50.000000,20.000000,14.750000
5010015,60.000000,20.000000,14.750000
5010016,70.000000,20.000000,14.750000
5010017,80.000000,20.000000,14.750000
5011001,-80.000000,30.000000,14.750000
5011002,-70.000000,30.000000,14.750000
5011003,-60.000000,30.000000,14.750000
5011004,-50.000000,30.000000,14.750000
5011005,-40.000000,30.000000,14.750000
5011013,40.000000,30.000000,14.750000
5011014,50.000000,30.000000,14.750000
5011015,60.000000,30.000000,14.750000
5011016,70.000000,30.000000,14.750000
5011017,80.000000,30.000000,14.750000
5012001,-80.000000,40.000000,14.750000
5012002,-70.000000,40.000000,14.750000
5012003,-60.000000,40.000000,14.750000
5012004,-50.000000,40.000000,14.750000
5012005,-40.000000,40.000000,14.750000
5012006,-30.000000,40.000000,14.750000
5012012,30.000000,40.000000,14.750000
5012013,40.000000,40.000000,14.750000
5012014,50.000000,40.000000,14.750000
5012015,60.000000,40.000000,14.750000
5012016,70.000000,40.000000,14.750000
5012017,80.000000,40.000000,14.750000
5013001,-80.000000,50.000000,14.750000
5013002,-70.000000,50.000000,14.750000
5013003,-60.000000,50.000000,14.750000
5013004,-50.000000,50.000000,14.750000
5013005,-40.000000,50.000000,14.750000
5013006,-30.000000,50.000000,14.750000
5013007,-20.000000,50.000000,14.750000
5013008,-10.000000,50.000000,14.750000
5013009,0.000000,50.000000,14.750000
5013010,10.000000,50.000000,14.750000
5013011,20.000000,50.000000,14.750000
5013012,30.000000,50.000000,14.750000
5013013,40.000000,50.000000,14.750000
5013014,50.000000,50.000000,14.750000
5013015,60.000000,50.000000,14.750000
5013016,70.000000,50.000000,14.750000
5013017,80.000000,50.000000,14.750000
5014001,-80.000000,60.000000,14.750000
5014002,-70.000000,60.000000,14.750000
5014003,-60.000000,60.000000,14.750000
5014004,-50.000000,60.000000,14.750000
5014005,-40.000000,60.000000,14.750000
5014006,-30.000000,60.000000,14.750000
5014007,-20.000000,60.000000,14.750000
5014008,-10.000000,60.000000,14.750000
5014009,0.000000,60.000000,14.750000
5014010,10.000000,60.000000,14.750000
5014011,20.000000,60.000000,14.750000
5014012,30.000000,60.000000,14.750000
5014013,40.000000,60.000000,14.750000
5014014,50.000000,60.000000,14.750000
5014015,60.000000,60.000000,14.750000
5014016,70.000000,60.000000,14.750000
5014017,80.000000,60.000000,14.750000
5015001,-80.000000,70.000000,14.750000
5015002,-70.000000,70.000000,14.750000
5015003,-60.000000,70.000000,14.750000
5015004,-50.000000,70.000000,14.750000
5015005,-40.000000,70.000000,14.750000
5015006,-30.000000,70.000000,14.750000
5015007,-20.000000,70.000000,14.750000
5015008,-10.000000,70.000000,14.750000
5015009,0.000000,70.000000,14.750000
5015010,10.000000,70.000000,14.750000
5015011,20.000000,70.000000,14.750000
5015012,30.000000,70.000000,14.750000
5015013,40.000000,70.000000,14.750000
5015014,50.000000,70.000000,14.750000
5015015,60.000000,70.000000,14.750000
5015016,70.000000,70.000000,14.750000
5015017,80.000000,70.000000,14.750000
5016001,-80.000000,80.000000,14.750000
5016002,-70.000000,80.000000,14.750000
5016003,-60.000000,80.000000,14.750000
5016004,-50.000000,80.000000,14.750000
5016005,-40.000000,80.000000,14.750000
5016006,-30.000000,80.000000,14.750000
5016007,-20.000000,80.000000,14.750000
5016008,-10.000000,80.000000,14.750000
5016009,0.000000,80.000000,14.750000
5016010,10.000000,80.000000,14.750000
5016011,20.000000,80.000000,14.750000
5016012,30.000000,80.000000,14.750000
5016013,40.000000,80.000000,14.750000
5016014,50.000000,80.000000,14.750000
5016015,60.000000,80.000000,14.750000
5016016,70.000000,80.000000,14.750000
5016017,80.000000,80.000000,14.750000
6000001,-80.000000,-80.000000,18.750000
6000002,-70.000000,-80.000000,18.750000
6000003,-60.000000,-80.000000,18.750000
6000004,-50.000000,-80.000000,18.750000
6000005,-40.000000,-80.000000,18.750000
6000006,-30.000000,-80.000000,18.750000
6000007,-20.000000,-80.000000,18.750000
6000008,-10.000000,-80.000000,18.750000
6000009,0.000000,-80.000000,18.750000
6000010,10.000000,-80.000000,18.750000
6000011,20.000000,-80.000000,18.750000
6000012,30.000000,-80.000000,18.750000
6000013,40.000000,-80.000000,18.750000
6000014,50.000000,-80.000000,18.750000
6000015,60.000000,-80.000000,18.750000
6000016,70.000000,-80.000000,18.750000
6000017,80.000000,-80.000000,18.750000
6001001,-80.000000,-70.000000,18.750000
6001002,-70.000000,-70.000000,18.750000
6001003,-60.000000,-70.000000,18.750000
6001004,-50.000000,-70.000000,18.750000
6001005,-40.000000,-70.000000,18.750000
6001006,-30.000000,-70.000000,18.750000
6001007,-20.000000,-70.000000,18.750000
6001008,-10.000000,-70.000000,18.750000
6001009,0.000000,-70.000000,18.750000
6001010,10.000000,-70.000000,18.750000
6001011,20.000000,-70.000000,18.750000
6001012,30.000000,-70.000000,18.750000
6001013,40.000000,-70.000000,18.750000
6001014,50.000000,-70.000000,18.750000
6001015,60.000000,-70.000000,18.750000
6001016,70.000000,-70.000000,18.750000
6001017,80.000000,-70.000000,18.750000
6002001,-80.000000,-60.000000,18.750000
6002002,-70.000000,-60.000000,18.750000
6002003,-60.000000,-60.000000,18.750000
6002004,-50.000000,-60.000000,18.750000
6002005,-40.000000,-60.000000,18.750000
6002006,-30.000000,-60.000000,18.750000
6002007,-20.000000,-60.000000,18.750000
6002008,-10.000000,-60.000000,18.750000
6002009,0.000000,-60.000000,18.750000
6002010,10.000000,-60.000000,18.750000
6002011,20.000000,-60.000000,18.750000
6002012,30.000000,-60.000000,18.750000
6002013,40.000000,-60.000000,18.750000
6002014,50.000000,-60.000000,18.750000
6002015,60.000000,-60.000000,18.750000
6002016,70.000000,-60.000000,18.750000
6002017,80.000000,-60.000000,18.750000
6003001,-80.000000,-50.000000,18.750000
6003002,-70.000000,-50.000000,18.750000
6003003,-60.000000,-50.000000,18.750000
6003004,-50.000000,-50.000000,18.750000
6003005,-40.000000,-50.000000,18.750000
6003006,-30.000000,-50.000000,18.750000
6003007,-20.000000,-50.000000,18.750000
6003008,-10.000000,-50.000000,18.750000
6003009,0.000000,-50.000000,18.750000
6003010,10.000000,-50.000000,18.750000
6003011,20.000000,-50.000000,18.750000
6003012,30.000000,-50.000000,18.750000
6003013,40.000000,-50.000000,18.750000
6003014,50.000000,-50.000000,18.750000
6003015,60.000000,-50.000000,18.750000
6003016,70.000000,-50.000000,18.750000
6003017,80.000000,-50.000000,18.750000
6004001,-80.000000,-40.000000,18.750000
6004002,-70.000000,-40.000000,18.750000
6004003,-60.000000,-40.000000,18.750000
6004004,-50.000000,-40.000000,18.750000
6004005,-40.000000,-40.000000,18.750000
6004006,-30.000000,-40.000000,18.750000
6004007,-20.000000,-40.000000,18.750000
6004008,-10.000000,-40.000000,18.750000
6004009,0.000000,-40.000000,18.750000
6004010,10.000000,-40.000000,18.750000
6004011,20.000000,-40.000000,18.750000
6004012,30.000000,-40.000000,18.750000
6004013,40.000000,-40.000000,18.750000
6004014,50.000000,-40.000000,18.750000
6004015,60.000000,-40.000000,18.750000
6004016,70.000000,-40.000000,18.750000
6004017,80.000000,-40.000000,18.750000
6005001,-80.000000,-30.000000,18.750000
6005002,-70.000000,-30.000000,18.750000
6005003,-60.000000,-30.000000,18.750000
6005004,-50.000000,-30.000000,18.750000
6005005,-40.000000,-30.000000,18.750000
6005006,-30.000000,-30.000000,18.750000
6005007,-20.000000,-30.000000,18.750000
6005008,-10.000000,-30.000000,18.750000
6005009,0.000000,-30.000000,18.750000
6005010,10.000000,-30.000000,18.750000
6005011,20.000000,-30.000000,18.750000
6005012,30.000000,-30.000000,18.750000
6005013,40.000000,-30.000000,18.750000
6005014,50.000000,-30.000000,18.750000
6005015,60.000000,-30.000000,18.750000
6005016,70.000000,-30.000000,18.750000
6005017,80.000000,-30.000000,18.750000
6006001,-80.000000,-20.000000,18.750000
6006002,-70.000000,-20.000000,18.750000
6006003,-60.000000,-20.000000,18.750000
6006004,-50.000000,-20.000000,18.750000
6006005,-40.000000,-20.000000,18.750000
6006006,-30.000000,-20.000000,18.750000
6006007,-20.000000,-20.000000,18.750000
6006008,-10.000000,-20.000000,18.750000
6006009,0.000000,-20.000000,18.750000
6006010,10.000000,-20.000000,18.750000
6006011,20.000000,-20.000000,18.750000
6006012,30.000000,-20.000000,18.750000
6006013,40.000000,-20.000000,18.750000
6006014,50.000000,-20.000000,18.750000
6006015,60.000000,-20.000000,18.750000
6006016,70.000000,-20.000000,18.750000
6006017,80.000000,-20.000000,18.750000
6007001,-80.000000,-10.000000,18.750000
6007002,-70.000000,-10.000000,18.750000
6007003,-60.000000,-10.000000,18.750000
6007004,-50.000000,-10.000000,18.750000
6007005,-40.000000,-10.000000,18.750000
6007006,-30.000000,-10.000000,18.750000
6007007,-20.000000,-10.000000,18.750000
6007008,-10.000000,-10.000000,18.750000
6007009,0.000000,-10.000000,18.750000
6007010,10.000000,-10.000000,18.750000
6007011,20.000000,-10.000000,18.750000
6007012,30.000000,-10.000000,18.750000
6007013,40.000000,-10.000000,18.750000
6007014,50.000000,-10.000000,18.750000
6007015,60.000000,-10.000000,18.750000
6007016,70.000000,-10.000000,18.750000
6007017,80.000000,-10.000000,18.750000
6008001,-80.000000,0.000000,18.750000
6008002,-70.000000,0.000000,18.750000
6008003,-60.000000,0.000000,18.750000
6008004,-50.000000,0.000000,18.750000
6008005,-40.000000,0.000000,18.750000
6008006,-30.000000,0.000000,18.750000
6008007,-20.000000,0.000000,18.750000
6008008,-10.000000,0.000000,18.750000
6008009,0.000000,0.000000,18.750000
6008010,10.000000,0.000000,18.750000
6008011,20.000000,0.000000,18.750000
6008012,30.000000,0.000000,18.750000
6008013,40.000000,0.000000,18.750000
6008014,50.000000,0.000000,18.750000
6008015,60.000000,0.000000,18.750000
6008016,70.000000,0.000000,18.750000
6008017,80.000000,0.000000,18.750000
6009001,-80.000000,10.000000,18.750000
6009002,-70.000000,10.000000,18.750000
6009003,-60.000000,10.000000,18.750000
6009004,-50.000000,10.000000,18.750000
6009005,-40.000000,10.000000,18.750000
6009006,-30.000000,10.000000,18.750000
6009007,-20.000000,10.000000,18.750000
6009008,-10.000000,10.000000,18.750000
6009009,0.000000,10.000000,18.750000
6009010,10.000000,10.000000,18.750000
6009011,20.000000,10.000000,18.750000
6009012,30.000000,10.000000,18.750000
6009013,40.000000,10.000000,18.750000
6009014,50.000000,10.000000,18.750000
6009015,60.000000,10.000000,18.750000
6009016,70.000000,10.000000,18.750000
6009017,80.000000,10.000000,18.750000
6010001,-80.000000,20.000000,18.750000
6010002,-70.000000,20.000000,18.750000
6010003,-60.000000,20.000000,18.750000
6010004,-50.000000,20.000000,18.750000
6010005,-40.000000,20.000000,18.750000
6010006,-30.000000,20.000000,18.750000
6010007,-20.000000,20.000000,18.750000
6010008,-10.000000,20.000000,18.750000
6010009,0.000000,20.000000,18.750000
6010010,10.000000,20.000000,18.750000
6010011,20.000000,20.000000,18.750000
6010012,30.000000,20.000000,18.750000
6010013,40.000000,20.000000,18.750000
6010014,50.000000,20.000000,18.750000
6010015,60.000000,20.000000,18.750000
6010016,70.000000,20.000000,18.750000
6010017,80.000000,20.000000,18.750000
6011001,-80.000000,30.000000,18.750000
6011002,-70.000000,30.000000,18.750000
6011003,-60.000000,30.000000,18.750000
6011004,-50.000000,30.000000,18.750000
6011005,-40.000000,30.000000,18.750000
6011006,-30.000000,30.000000,18.750000
6011007,-20.000000,30.000000,18.750000
6011008,-10.000000,30.000000,18.750000
6011009,0.000000,30.000000,18.750000
6011010,10.000000,30.000000,18.750000
6011011,20.000000,30.000000,18.750000
6011012,30.000000,30.000000,18.750000
6011013,40.000000,30.000000,18.750000
6011014,50.000000,30.000000,18.750000
6011015,60.000000,30.000000,18.750000
6011016,70.000000,30.000000,18.750000
6011017,80.000000,30.000000,18.750000
6012001,-80.000000,40.000000,18.750000
6012002,-70.000000,40.000000,18.750000
6012003,-60.000000,40.000000,18.750000
6012004,-50.000000,40.000000,18.750000
6012005,-40.000000,40.000000,18.750000
6012006,-30.000000,40.000000,18.750000
6012007,-20.000000,40.000000,18.750000
6012008,-10.000000,40.000000,18.750000
6012009,0.000000,40.000000,18.750000
6012010,10.000000,40.000000,18.750000
6012011,20.000000,40.000000,18.750000
6012012,30.000000,40.000000,18.750000
6012013,40.000000,40.000000,18.750000
6012014,50.000000,40.000000,18.750000
6012015,60.000000,40.000000,18.750000
6012016,70.000000,40.000000,18.750000
6012017,80.000000,40.000000,18.750000
6013001,-80.000000,50.000000,18.750000
6013002,-70.000000,50.000000,18.750000
6013003,-60.000000,50.000000,18.750000
6013004,-50.000000,50.000000,18.750000
6013005,-40.000000,50.000000,18.750000
6013006,-30.000000,50.000000,18.750000
6013007,-20.000000,50.000000,18.750000
6013008,-10.000000,50.000000,18.750000
6013009,0.000000,50.000000,18.750000
6013010,10.000000,50.000000,18.750000
6013011,20.000000,50.000000,18.750000
6013012,30.000000,50.000000,18.750000
6013013,40.000000,50.000000,18.750000
6013014,50.000000,50.000000,18.750000
6013015,60.000000,50.000000,18.750000
6013016,70.000000,50.000000,18.750000
6013017,80.000000,50.000000,18.750000
6014001,-80.000000,60.000000,18.750000
6014002,-70.000000,60.000000,18.750000
6014003,-60.000000,60.000000,18.750000
6014004,-50.000000,60.000000,18.750000
6014005,-40.000000,60.000000,18.750000
6014006,-30.000000,60.000000,18.750000
6014007,-20.000000,60.000000,18.750000
6014008,-10.000000,60.000000,18.750000
6014009,0.000000,60.000000,18.750000
6014010,10.000000,60.000000,18.750000
6014011,20.000000,60.000000,18.750000
6014012,30.000000,60.000000,18.750000
6014013,40.000000,60.000000,18.750000
6014014,50.000000,60.000000,18.750000
6014015,60.000000,60.000000,18.750000
6014016,70.000000,60.000000,18.750000
6014017,80.000000,60.000000,18.750000
6015001,-80.000000,70.000000,18.750000
6015002,-70.000000,70.000000,18.750000
6015003,-60.000000,70.000000,18.750000
6015004,-50.000000,70.000000,18.750000
6015005,-40.000000,70.000000,18.750000
6015006,-30.000000,70.000000,18.750000
6015007,-20.000000,70.000000,18.750000
6015008,-10.000000,70.000000,18.750000
6015009,0.000000,70.000000,18.750000
6015010,10.000000,70.000000,18.750000
6015011,20.000000,70.000000,18.750000
6015012,30.000000,70.000000,18.750000
6015013,40.000000,70.000000,18.750000
6015014,50.000000,70.000000,18.750000
6015015,60.000000,70.000000,18.750000
6015016,70.000000,70.000000,18.750000
6015017,80.000000,70.000000,18.750000
6016001,-80.000000,80.000000,18.750000
6016002,-70.000000,80.000000,18.750000
6016003,-60.000000,80.000000,18.750000
6016004,-50.000000,80.000000,18.750000
6016005,-40.000000,80.000000,18.750000
6016006,-30.000000,80.000000,18.750000
6016007,-20.000000,80.000000,18.750000
6016008,-10.000000,80.000000,18.750000
6016009,0.000000,80.000000,18.750000
6016010,10.000000,80.000000,18.750000
6016011,20.000000,80.000000,18.750000
6016012,30.000000,80.000000,18.750000
6016013,40.000000,80.000000,18.750000
6016014,50.000000,80.000000,18.750000
6016015,60.000000,80.000000,18.750000
6016016,70.000000,80.000000,18.750000
6016017,80.000000,80.000000,18.750000
7000001,-80.000000,-80.000000,22.750000
7000002,-70.000000,-80.000000,22.750000
7000003,-60.000000,-80.000000,22.750000
7000004,-50.000000,-80.000000,22.750000
7000005,-40.000000,-80.000000,22.750000
7000006,-30.000000,-80.000000,22.750000
7000007,-20.000000,-80.000000,22.750000
7000008,-10.000000,-80.000000,22.750000
7000009,0.000000,-80.000000,22.750000
7000010,10.000000,-80.000000,22.750000
7000011,20.000000,-80.000000,22.750000
7000012,30.000000,-80.000000,22.750000
7000013,40.000000,-80.000000,22.750000
7000014,50.000000,-80.000000,22.750000
7000015,60.000000,-80.000000,22.750000
7000016,70.000000,-80.000000,22.750000
7000017,80.000000,-80.000000,22.750000
7001001,-80.000000,-70.000000,22.750000
7001002,-70.000000,-70.000000,22.750000
7001003,-60.000000,-70.000000,22.750000
7001004,-50.000000,-70.000000,22.750000
7001005,-40.000000,-70.000000,22.750000
7001006,-30.000000,-70.000000,22.750000
7001007,-20.000000,-70.000000,22.750000
7001008,-10.000000,-70.000000,22.750000
7001009,0.000000,-70.000000,22.750000
7001010,10.000000,-70.000000,22.750000
7001011,20.000000,-70.000000,22.750000
7001012,30.000000,-70.000000,22.750000
7001013,40.000000,-70.000000,22.750000
7001014,50.000000,-70.000000,22.750000
7001015,60.000000,-70.000000,22.750000
7001016,70.000000,-70.000000,22.750000
7001017,80.000000,-70.000000,22.750000
7002001,-80.000000,-60.000000,22.750000
7002002,-70.000000,-60.000000,22.750000
7002003,-60.000000,-60.000000,22.750000
7002004,-50.000000,-60.000000,22.750000
7002005,-40.000000,-60.000000,22.750000
7002006,-30.000000,-60.000000,22.750000
7002007,-20.000000,-60.000000,22.750000
7002008,-10.000000,-60.000000,22.750000
7002009,0.000000,-60.000000,22.750000
7002010,10.000000,-60.000000,22.750000
7002011,20.000000,-60.000000,22.750000
7002012,30.000000,-60.000000,22.750000
7002013,40.000000,-60.000000,22.750000
7002014,50.000000,-60.000000,22.750000
7002015,60.000000,-60.000000,22.750000
7002016,70.000000,-60.000000,22.750000
7002017,80.000000,-60.000000,22.750000
7003001,-80.000000,-50.000000,22.750000
7003002,-70.000000,-50.000000,22.750000
7003003,-60.000000,-50.000000,22.750000
7003004,-50.000000,-50.000000,22.750000
7003005,-40.000000,-50.000000,22.750000
7003006,-30.000000,-50.000000,22.750000
7003007,-20.000000,-50.000000,22.750000
7003008,-10.000000,-50.000000,22.750000
7003009,0.000000,-50.000000,22.750000
7003010,10.000000,-50.000000,22.750000
7003011,20.000000,-50.000000,22.750000
7003012,30.000000,-50.000000,22.750000
7003013,40.000000,-50.000000,22.750000
7003014,50.000000,-50.000000,22.750000
7003015,60.000000,-50.000000,22.750000
7003016,70.000000,-50.000000,22.750000
7003017,80.000000,-50.000000,22.750000
7004001,-80.000000,-40.000000,22.750000
7004002,-70.000000,-40.000000,22.750000
7004003,-60.000000,-40.000000,22.750000
7004004,-50.000000,-40.000000,22.750000
7004005,-40.000000,-40.000000,22.750000
7004006,-30.000000,-40.000000,22.750000
7004007,-20.000000,-40.000000,22.750000
7004008,-10.000000,-40.000000,22.750000
7004009,0.000000,-40.000000,22.750000
7004010,10.000000,-40.000000,22.750000
7004011,20.000000,-40.000000,22.750000
7004012,30.000000,-40.000000,22.750000
7004013,40.000000,-40.000000,22.750000
7004014,50.000000,-40.000000,22.750000
7004015,60.000000,-40.000000,22.750000
7004016,70.000000,-40.000000,22.750000
7004017,80.000000,-40.000000,22.750000
7005001,-80.000000,-30.000000,22.750000
7005002,-70.000000,-30.000000,22.750000
7005003,-60.000000,-30.000000,22.750000
7005004,-50.000000,-30.000000,22.750000
7005005,-40.000000,-30.000000,22.750000
7005006,-30.000000,-30.000000,22.750000
7005007,-20.000000,-30.000000,22.750000
7005008,-10.000000,-30.000000,22.750000
7005009,0.000000,-30.000000,22.750000
7005010,10.000000,-30.000000,22.750000
7005011,20.000000,-30.000000,22.750000
7005012,30.000000,-30.000000,22.750000
7005013,40.000000,-30.000000,22.750000
7005014,50.000000,-30.000000,22.750000
7005015,60.000000,-30.000000,22.750000
7005016,70.000000,-30.000000,22.750000
7005017,80.000000,-30.000000,22.750000
7006001,-80.000000,-20.000000,22.750000
7006002,-70.000000,-20.000000,22.750000
7006003,-60.000000,-20.000000,22.750000
7006004,-50.000000,-20.000000,22.750000
7006005,-40.000000,-20.000000,22.750000
7006006,-30.000000,-20.000000,22.750000
7006007,-20.000000,-20.000000,22.750000
7006008,-10.000000,-20.000000,22.750000
7006009,0.000000,-20.000000,22.750000
7006010,10.000000,-20.000000,22.750000
7006011,20.000000,-20.000000,22.750000
7006012,30.000000,-20.000000,22.750000
7006013,40.000000,-20.000000,22.750000
7006014,50.000000,-20.000000,22.750000
7006015,60.000000,-20.000000,22.750000
7006016,70.000000,-20.000000,22.750000
7006017,80.000000,-20.000000,22.750000
7007001,-80.000000,-10.000000,22.750000
7007002,-70.000000,-10.000000,22.750000
7007003,-60.000000,-10.000000,22.750000
7007004,-50.000000,-10.000000,22.750000
7007005,-40.000000,-10.000000,22.750000
7007006,-30.000000,-10.000000,22.750000
7007007,-20.000000,-10.000000,22.750000
7007008,-10.000000,-10.000000,22.750000
7007009,0.000000,-10.000000,22.750000
7007010,10.000000,-10.000000,22.750000
7007011,20.000000,-10.000000,22.750000
7007012,30.000000,-10.000000,22.750000
7007013,40.000000,-10.000000,22.750000
7007014,50.000000,-10.000000,22.750000
7007015,60.000000,-10.000000,22.750000
7007016,70.000000,-10.000000,22.750000
7007017,80.000000,-10.000000,22.750000
7008001,-80.000000,0.000000,22.750000
7008002,-70.000000,0.000000,22.750000
7008003,-60.000000,0.000000,22.750000
7008004,-50.000000,0.000000,22.750000
7008005,-40.000000,0.000000,22.750000
7008006,-30.000000,0.000000,22.750000
7008007,-20.000000,0.000000,22.750000
7008008,-10.000000,0.000000,22.750000
7008009,0.000000,0.000000,22.750000
7008010,10.000000,0.000000,22.750000
7008011,20.000000,0.000000,22.750000
7008012,30.000000,0.000000,22.750000
7008013,40.000000,0.000000,22.750000
7008014,50.000000,0.000000,22.750000
7008015,60.000000,0.000000,22.750000
7008016,70.000000,0.000000,22.750000
7008017,80.000000,0.000000,22.750000
7009001,-80.000000,10.000000,22.750000
7009002,-70.000000,10.000000,22.750000
7009003,-60.000000,10.000000,22.750000
7009004,-50.000000,10.000000,22.750000
7009005,-40.000000,10.000000,22.750000
7009006,-30.000000,10.000000,22.750000
7009007,-20.000000,10.000000,22.750000
7009008,-10.000000,10.000000,22.750000
7009009,0.000000,10.000000,22.750000
7009010,10.000000,10.000000,22.750000
7009011,20.000000,10.000000,22.750000
7009012,30.000000,10.000000,22.750000
7009013,40.000000,10.000000,22.750000
7009014,50.000000,10.000000,22.750000
7009015,60.000000,10.000000,22.750000
7009016,70.000000,10.000000,22.750000
7009017,80.000000,10.000000,22.750000
7010001,-80.000000,20.000000,22.750000
7010002,-70.000000,20.000000,22.750000
7010003,-60.000000,20.000000,22.750000
7010004,-50.000000,20.000000,22.750000
7010005,-40.000000,20.000000,22.750000
7010006,-30.000000,20.000000,22.750000
7010007,-20.000000,20.000000,22.750000
7010008,-10.000000,20.000000,22.750000
7010009,0.000000,20.000000,22.750000
7010010,10.000000,20.000000,22.750000
7010011,20.000000,20.000000,22.750000
7010012,30.000000,20.000000,22.750000
7010013,40.000000,20.000000,22.750000
7010014,50.000000,20.000000,22.750000
7010015,60.000000,20.000000,22.750000
7010016,70.000000,20.000000,22.750000
7010017,80.000000,20.000000,22.750000
7011001,-80.000000,30.000000,22.750000
7011002,-70.000000,30.000000,22.750000
7011003,-60.000000,30.000000,22.750000
7011004,-50.000000,30.000000,22.750000
7011005,-40.000000,30.000000,22.750000
7011006,-30.000000,30.000000,22.750000
7011007,-20.000000,30.000000,22.750000
7011008,-10.000000,30.000000,22.750000
7011009,0.000000,30.000000,22.750000
7011010,10.000000,30.000000,22.750000
7011011,20.000000,30.000000,22.750000
7011012,30.000000,30.000000,22.750000
7011013,40.000000,30.000000,22.750000
7011014,50.000000,30.000000,22.750000
7011015,60.000000,30.000000,22.750000
7011016,70.000000,30.000000,22.750000
7011017,80.000000,30.000000,22.750000
7012001,-80.000000,40.000000,22.750000
7012002,-70.000000,40.000000,22.750000
7012003,-60.000000,40.000000,22.750000
7012004,-50.000000,40.000000,22.750000
7012005,-40.000000,40.000000,22.750000
7012006,-30.000000,40.000000,22.750000
7012007,-20.000000,40.000000,22.750000
7012008,-10.000000,40.000000,22.750000
7012009,0.000000,40.000000,22.750000
7012010,10.000000,40.000000,22.750000
7012011,20.000000,40.000000,22.750000
7012012,30.000000,40.000000,22.750000
7012013,40.000000,40.000000,22.750000
7012014,50.000000,40.000000,22.750000
7012015,60.000000,40.000000,22.750000
7012016,70.000000,40.000000,22.750000
7012017,80.000000,40.000000,22.750000
7013001,-80.000000,50.000000,22.750000
7013002,-70.000000,50.000000,22.750000
7013003,-60.000000,50.000000,22.750000
7013004,-50.000000,50.000000,22.750000
7013005,-40.000000,50.000000,22.750000
7013006,-30.000000,50.000000,22.750000
7013007,-20.000000,50.000000,22.750000
7013008,-10.000000,50.000000,22.750000
7013009,0.000000,50.000000,22.750000
7013010,10.000000,50.000000,22.750000
7013011,20.000000,50.000000,22.750000
7013012,30.000000,50.000000,22.750000
7013013,40.000000,50.000000,22.750000
7013014,50.000000,50.000000,22.750000
7013015,60.000000,50.000000,22.750000
7013016,70.000000,50.000000,22.750000
7013017,80.000000,50.000000,22.750000
7014001,-80.000000,60.000000,22.750000
7014002,-70.000000,60.000000,22.750000
7014003,-60.000000,60.000000,22.750000
7014004,-50.000000,60.000000,22.750000
7014005,-40.000000,60.000000,22.750000
7014006,-30.000000,60.000000,22.750000
7014007,-20.000000,60.000000,22.750000
7014008,-10.000000,60.000000,22.750000
7014009,0.000000,60.000000,22.750000
7014010,10.000000,60.000000,22.750000
7014011,20.000000,60.000000,22.750000
7014012,30.000000,60.000000,22.750000
7014013,40.000000,60.000000,22.750000
7014014,50.000000,60.000000,22.750000
7014015,60.000000,60.000000,22.750000
7014016,70.000000,60.000000,22.750000
7014017,80.000000,60.000000,22.750000
7015001,-80.000000,70.000000,22.750000
7015002,-70.000000,70.000000,22.750000
7015003,-60.000000,70.000000,22.750000
7015004,-50.000000,70.000000,22.750000
7015005,-40.000000,70.000000,22.750000
7015006,-30.000000,70.000000,22.750000
7015007,-20.000000,70.000000,22.750000
7015008,-10.000000,70.000000,22.750000
7015009,0.000000,70.000000,22.750000
7015010,10.000000,70.000000,22.750000
7015011,20.000000,70.000000,22.750000
7015012,30.000000,70.000000,22.750000
7015013,40.000000,70.000000,22.750000
7015014,50.000000,70.000000,22.750000
7015015,60.000000,70.000000,22.750000
7015016,70.000000,70.000000,22.750000
7015017,80.000000,70.000000,22.750000
7016001,-80.000000,80.000000,22.750000
7016002,-70.000000,80.000000,22.750000
7016003,-60.000000,80.000000,22.750000
7016004,-50.000000,80.000000,22.750000
7016005,-40.000000,80.000000,22.750000
7016006,-30.000000,80.000000,22.750000
7016007,-20.000000,80.000000,22.750000
7016008,-10.000000,80.000000,22.750000
7016009,0.000000,80.000000,22.750000
7016010,10.000000,80.000000,22.750000
7016011,20.000000,80.000000,22.750000
7016012,30.000000,80.000000,22.750000
7016013,40.000000,80.000000,22.750000
7016014,50.000000,80.000000,22.750000
7016015,60.000000,80.000000,22.750000
7016016,70.000000,80.000000,22.750000
7016017,80.000000,80.000000,22.750000
8001007,-20.000000,-70.000000,22.750000
8001008,-10.000000,-70.000000,22.750000
8001009,0.000000,-70.000000,22.750000
8001010,10.000000,-70.000000,22.750000
8001011,20.000000,-70.000000,22.750000
8002005,-40.000000,-60.000000,22.750000
8002006,-30.000000,-60.000000,22.750000
8002007,-20.000000,-60.000000,22.750000
8002008,-10.000000,-60.000000,22.750000
8002009,0.000000,-60.000000,22.750000
8002010,10.000000,-60.000000,22.750000
8002011,20.000000,-60.000000,22.750000
8002012,30.000000,-60.000000,22.750000
8002013,40.000000,-60.000000,22.750000
8003004,-50.000000,-50.000000,22.750000
8003005,-40.000000,-50.000000,22.750000
8003006,-30.000000,-50.000000,22.750000
8003007,-20.000000,-50.000000,22.750000
8003008,-10.000000,-50.000000,22.750000
8003009,0.000000,-50.000000,22.750000
8003010,10.000000,-50.000000,22.750000
8003011,20.000000,-50.000000,22.750000
8003012,30.000000,-50.000000,22.750000
8003013,40.000000,-50.000000,22.750000
8003014,50.000000,-50.000000,22.750000
8004003,-60.000000,-40.000000,22.750000
8004004,-50.000000,-40.000000,22.750000
8004005,-40.000000,-40.000000,22.750000
8004006,-30.000000,-40.000000,22.750000
8004007,-20.000000,-40.000000,22.750000
8004008,-10.000000,-40.000000,22.750000
8004009,0.000000,-40.000000,22.750000
8004010,10.000000,-40.000000,22.750000
8004011,20.000000,-40.000000,22.750000
8004012,30.000000,-40.000000,22.750000
8004013,40.000000,-40.000000,22.750000
8004014,50.000000,-40.000000,22.750000
8004015,60.000000,-40.000000,22.750000
8005003,-60.000000,-30.000000,22.750000
8005004,-50.000000,-30.000000,22.750000
8005005,-40.000000,-30.000000,22.750000
8005006,-30.000000,-30.000000,22.750000
8005007,-20.000000,-30.000000,22.750000
8005008,-10.000000,-30.000000,22.750000
8005009,0.000000,-30.000000,22.750000
8005010,10.000000,-30.000000,22.750000
8005011,20.000000,-30.000000,22.750000
8005012,30.000000,-30.000000,22.750000
8005013,40.000000,-30.000000,22.750000
8005014,50.000000,-30.000000,22.750000
8005015,60.000000,-30.000000,22.750000
8006002,-70.000000,-20.000000,22.750000
8006003,-60.000000,-20.000000,22.750000
8006004,-50.000000,-20.000000,22.750000
8006005,-40.000000,-20.000000,22.750000
8006006,-30.000000,-20.000000,22.750000
8006007,-20.000000,-20.000000,22.750000
8006008,-10.000000,-20.000000,22.750000
8006009,0.000000,-20.000000,22.750000
8006010,10.000000,-20.000000,22.750000
8006011,20.000000,-20.000000,22.750000
8006012,30.000000,-20.000000,22.750000
8006013,40.000000,-20.000000,22.750000
8006014,50.000000,-20.000000,22.750000
8006015,60.000000,-20.000000,22.750000
8006016,70.000000,-20.000000,22.750000
8007002,-70.000000,-10.000000,22.750000
8007003,-60.000000,-10.000000,22.750000
8007004,-50.000000,-10.000000,22.750000
8007005,-40.000000,-10.000000,22.750000
8007006,-30.000000,-10.000000,22.750000
8007007,-20.000000,-10.000000,22.750000
8007011,20.000000,-10.000000,22.750000
8007012,30.000000,-10.000000,22.750000
8007013,40.000000,-10.000000,22.750000
8007014,50.000000,-10.000000,22.750000
8007015,60.000000,-10.000000,22.750000
8007016,70.000000,-10.000000,22.750000
8008002,-70.000000,0.000000,22.750000
8008003,-60.000000,0.000000,22.750000
8008004,-50.000000,0.000000,22.750000
8008005,-40.000000,0.000000,22.750000
8008006,-30.000000,0.000000,22.750000
8008007,-20.000000,0.000000,22.750000
8008011,20.000000,0.000000,22.750000
8008012,30.000000,0.000000,22.750000
8008013,40.000000,0.000000,22.750000
8008014,50.000000,0.000000,22.750000
8008015,60.000000,0.000000,22.750000
8008016,70.000000,0.000000,22.750000
8009002,-70.000000,10.000000,22.750000
8009003,-60.000000,10.000000,22.750000
8009004,-50.000000,10.000000,22.750000
8009005,-40.000000,10.000000,22.750000
8009006,-30.000000,10.000000,22.750000
8009007,-20.000000,10.000000,22.750000
8009011,20.000000,10.000000,22.750000
8009012,30.000000,10.000000,22.750000
8009013,40.000000,10.000000,22.750000
8009014,50.000000,10.000000,22.750000
8009015,60.000000,10.000000,22.750000
8009016,70.000000,10.000000,22.750000
8010002,-70.000000,20.000000,22.750000
8010003,-60.000000,20.000000,22.750000
8010004,-50.000000,20.000000,22.750000
8010005,-40.000000,20.000000,22.750000
8010006,-30.000000,20.000000,22.750000
8010007,-20.000000,20.000000,22.750000
8010008,-10.000000,20.000000,22.750000
8010009,0.000000,20.000000,22.750000
8010010,10.000000,20.000000,22.750000
8010011,20.000000,20.000000,22.750000
8010012,30.000000,20.000000,22.750000
8010013,40.000000,20.000000,22.750000
8010014,50.000000,20.000000,22.750000
8010015,60.000000,20.000000,22.750000
8010016,70.000000,20.000000,22.750000
8011003,-60.000000,30.000000,22.750000
8011004,-50.000000,30.000000,22.750000
8011005,-40.000000,30.000000,22.750000
8011006,-30.000000,30.000000,22.750000
8011007,-20.000000,30.000000,22.750000
8011008,-10.000000,30.000000,22.750000
8011009,0.000000,30.000000,22.750000
8011010,10.000000,30.000000,22.750000
8011011,20.000000,30.000000,22.750000
8011012,30.000000,30.000000,22.750000
8011013,40.000000,30.000000,22.750000
8011014,50.000000,30.000000,22.750000
8011015,60.000000,30.000000,22.750000
8012003,-60.000000,40.000000,22.750000
8012004,-50.000000,40.000000,22.750000
8012005,-40.000000,40.000000,22.750000
8012006,-30.000000,40.000000,22.750000
8012007,-20.000000,40.000000,22.750000
8012008,-10.000000,40.000000,22.750000
8012009,0.000000,40.000000,22.750000
8012010,10.000000,40.000000,22.750000
8012011,20.000000,40.000000,22.750000
8012012,30.000000,40.000000,22.750000
8012013,40.000000,40.000000,22.750000
8012014,50.000000,40.000000,22.750000
8012015,60.000000,40.000000,22.750000
8013004,-50.000000,50.000000,22.750000
8013005,-40.000000,50.000000,22.750000
8013006,-30.000000,50.000000,22.750000
8013007,-20.000000,50.000000,22.750000
8013008,-10.000000,50.000000,22.750000
8013009,0.000000,50.000000,22.750000
8013010,10.000000,50.000000,22.750000
8013011,20.000000,50.000000,22.750000
8013012,30.000000,50.000000,22.750000
8013013,40.000000,50.000000,22.750000
8013014,50.000000,50.000000,22.750000
8014005,-40.000000,60.000000,22.750000
8014006,-30.000000,60.000000,22.750000
8014007,-20.000000,60.000000,22.750000
8014008,-10.000000,60.000000,22.750000
8014009,0.000000,60.000000,22.750000
8014010,10.000000,60.000000,22.750000
8014011,20.000000,60.000000,22.750000
8014012,30.000000,60.000000,22.750000
8014013,40.000000,60.000000,22.750000
8015007,-20.000000,70.000000,22.750000
8015008,-10.000000,70.000000,22.750000
8015009,0.000000,70.000000,22.750000
8015010,10.000000,70.000000,22.750000
8015011,20.000000,70.000000,22.750000
9001007,-20.000000,-70.000000,26.750000
9001008,-10.000000,-70.000000,26.750000
9001009,0.000000,-70.000000,26.750000
9001010,10.000000,-70.000000,26.750000
9001011,20.000000,-70.000000,26.750000
9002005,-40.000000,-60.000000,26.750000
9002006,-30.000000,-60.000000,26.750000
9002007,-20.000000,-60.000000,26.750000
9002008,-10.000000,-60.000000,26.750000
9002009,0.000000,-60.000000,26.750000
9002010,10.000000,-60.000000,26.750000
9002011,20.000000,-60.000000,26.750000
9002012,30.000000,-60.000000,26.750000
9002013,40.000000,-60.000000,26.750000
9003004,-50.000000,-50.000000,26.750000
9003005,-40.000000,-50.000000,26.750000
9003006,-30.000000,-50.000000,26.750000
9003007,-20.000000,-50.000000,26.750000
9003008,-10.000000,-50.000000,26.750000
9003009,0.000000,-50.000000,26.750000
9003010,10.000000,-50.000000,26.750000
9003011,20.000000,-50.000000,26.750000
9003012,30.000000,-50.000000,26.750000
9003013,40.000000,-50.000000,26.750000
9003014,50.000000,-50.000000,26.750000
9004003,-60.000000,-40.000000,26.750000
9004004,-50.000000,-40.000000,26.750000
9004005,-40.000000,-40.000000,26.750000
9004006,-30.000000,-40.000000,26.750000
9004007,-20.000000,-40.000000,26.750000
9004008,-10.000000,-40.000000,26.750000
9004009,0.000000,-40.000000,26.750000
9004010,10.000000,-40.000000,26.750000
9004011,20.000000,-40.000000,26.750000
9004012,30.000000,-40.000000,26.750000
9004013,40.000000,-40.000000,26.750000
9004014,50.000000,-40.000000,26.750000
9004015,60.000000,-40.000000,26.750000
9005003,-60.000000,-30.000000,26.750000
9005004,-50.000000,-30.000000,26.750000
9005005,-40.000000,-30.000000,26.750000
9005006,-30.000000,-30.000000,26.750000
9005007,-20.000000,-30.000000,26.750000
9005008,-10.000000,-30.000000,26.750000
9005009,0.000000,-30.000000,26.750000
9005010,10.000000,-30.000000,26.750000
9005011,20.000000,-30.000000,26.750000
9005012,30.000000,-30.000000,26.750000
9005013,40.000000,-30.000000,26.750000
9005014,50.000000,-30.000000,26.750000
9005015,60.000000,-30.000000,26.750000
9006002,-70.000000,-20.000000,26.750000
9006003,-60.000000,-20.000000,26.750000
9006004,-50.000000,-20.000000,26.750000
9006005,-40.000000,-20.000000,26.750000
9006006,-30.000000,-20.000000,26.750000
9006007,-20.000000,-20.000000,26.750000
9006008,-10.000000,-20.000000,26.750000
9006009,0.000000,-20.000000,26.750000
9006010,10.000000,-20.000000,26.750000
9006011,20.000000,-20.000000,26.750000
9006012,30.000000,-20.000000,26.750000
9006013,40.000000,-20.000000,26.750000
9006014,50.000000,-20.000000,26.750000
9006015,60.000000,-20.000000,26.750000
9006016,70.000000,-20.000000,26.750000
9007002,-70.000000,-10.000000,26.750000
9007003,-60.000000,-10.000000,26.750000
9007004,-50.000000,-10.000000,26.750000
9007005,-40.000000,-10.000000,26.750000
9007006,-30.000000,-10.000000,26.750000
9007007,-20.000000,-10.000000,26.750000
9007011,20.000000,-10.000000,26.750000
9007012,30.000000,-10.000000,26.750000
9007013,40.000000,-10.000000,26.750000
9007014,50.000000,-10.000000,26.750000
9007015,60.000000,-10.000000,26.750000
9007016,70.000000,-10.000000,26.750000
9008002,-70.000000,0.000000,26.750000
9008003,-60.000000,0.000000,26.750000
9008004,-50.000000,0.000000,26.750000
9008005,-40.000000,0.000000,26.750000
9008006,-30.000000,0.000000,26.750000
9008007,-20.000000,0.000000,26.750000
9008011,20.000000,0.000000,26.750000
9008012,30.000000,0.000000,26.750000
9008013,40.000000,0.000000,26.750000
9008014,50.000000,0.000000,26.750000
9008015,60.000000,0.000000,26.750000
9008016,70.000000,0.000000,26.750000
9009002,-70.000000,10.000000,26.750000
9009003,-60.000000,10.000000,26.750000
9009004,-50.000000,10.000000,26.750000
9009005,-40.000000,10.000000,26.750000
9009006,-30.000000,10.000000,26.750000
9009007,-20.000000,10.000000,26.750000
9009011,20.000000,10.000000,26.750000
9009012,30.000000,10.000000,26.750000
9009013,40.000000,10.000000,26.750000
9009014,50.000000,10.000000,26.750000
9009015,60.000000,10.000000,26.750000
9009016,70.000000,10.000000,26.750000
9010002,-70.000000,20.000000,26.750000
9010003,-60.000000,20.000000,26.750000
9010004,-50.000000,20.000000,26.750000
9010005,-40.000000,20.000000,26.750000
9010006,-30.000000,20.000000,26.750000
9010007,-20.000000,20.000000,26.750000
9010008,-10.000000,20.000000,26.750000
9010009,0.000000,20.000000,26.750000
9010010,10.000000,20.000000,26.750000
9010011,20.000000,20.000000,26.750000
9010012,30.000000,20.000000,26.750000
9010013,40.000000,20.000000,26.750000
9010014,50.000000,20.000000,26.750000
9010015,60.000000,20.000000,26.750000
9010016,70.000000,20.000000,26.750000
9011003,-60.000000,30.000000,26.750000
9011004,-50.000000,30.000000,26.750000
9011005,-40.000000,30.000000,26.750000
9011006,-30.000000,30.000000,26.750000
9011007,-20.000000,30.000000,26.750000
9011008,-10.000000,30.000000,26.750000
9011009,0.000000,30.000000,26.750000
9011010,10.000000,30.000000,26.750000
9011011,20.000000,30.000000,26.750000
9011012,30.000000,30.000000,26.750000
9011013,40.000000,30.000000,26.750000
9011014,50.000000,30.000000,26.750000
9011015,60.000000,30.000000,26.750000
9012003,-60.000000,40.000000,26.750000
9012004,-50.000000,40.000000,26.750000
9012005,-40.000000,40.000000,26.750000
9012006,-30.000000,40.000000,26.750000
9012007,-20.000000,40.000000,26.750000
9012008,-10.000000,40.000000,26.750000
9012009,0.000000,40.000000,26.750000
9012010,10.000000,40.000000,26.750000
9012011,20.000000,40.000000,26.750000
9012012,30.000000,40.000000,26.750000
9012013,40.000000,40.000000,26.750000
9012014,50.000000,40.000000,26.750000
9012015,60.000000,40.000000,26.750000
9013004,-50.000000,50.000000,26.750000
9013005,-40.000000,50.000000,26.750000
9013006,-30.000000,50.000000,26.750000
9013007,-20.000000,50.000000,26.750000
9013008,-10.000000,50.000000,26.750000
9013009,0.000000,50.000000,26.750000
9013010,10.000000,50.000000,26.750000
9013011,20.000000,50.000000,26.750000
9013012,30.000000,50.000000,26.750000
9013013,40.000000,50.000000,26.750000
9013014,50.000000,50.000000,26.750000
9014005,-40.000000,60.000000,26.750000
9014006,-30.000000,60.000000,26.750000
9014007,-20.000000,60.000000,26.750000
9014008,-10.000000,60.000000,26.750000
9014009,0.000000,60.000000,26.750000
9014010,10.000000,60.000000,26.750000
9014011,20.000000,60.000000,26.750000
9014012,30.000000,60.000000,26.750000
9014013,40.000000,60.000000,26.750000
9015007,-20.000000,70.000000,26.750000
9015008,-10.000000,70.000000,26.750000
9015009,0.000000,70.000000,26.750000
9015010,10.000000,70.000000,26.750000
9015011,20.000000,70.000000,26.750000
10001007,-20.000000,-70.000000,30.750000
10001008,-10.000000,-70.000000,30.750000
10001009,0.000000,-70.000000,30.750000
10001010,10.000000,-70.000000,30.750000
10001011,20.000000,-70.000000,30.750000
10002005,-40.000000,-60.000000,30.750000
10002006,-30.000000,-60.000000,30.750000
10002007,-20.000000,-60.000000,30.750000
10002008,-10.000000,-60.000000,30.750000
10002009,0.000000,-60.000000,30.750000
10002010,10.000000,-60.000000,30.750000
10002011,20.000000,-60.000000,30.750000
10002012,30.000000,-60.000000,30.750000
10002013,40.000000,-60.000000,30.750000
10003004,-50.000000,-50.000000,30.750000
10003005,-40.000000,-50.000000,30.750000
10003006,-30.000000,-50.000000,30.750000
10003007,-20.000000,-50.000000,30.750000
10003008,-10.000000,-50.000000,30.750000
10003009,0.000000,-50.000000,30.750000
10003010,10.000000,-50.000000,30.750000
10003011,20.000000,-50.000000,30.750000
10003012,30.000000,-50.000000,30.750000
10003013,40.000000,-50.000000,30.750000
10003014,50.000000,-50.000000,30.750000
10004003,-60.000000,-40.000000,30.750000
10004004,-50.000000,-40.000000,30.750000
10004005,-40.000000,-40.000000,30.750000
10004006,-30.000000,-40.000000,30.750000
10004007,-20.000000,-40.000000,30.750000
10004008,-10.000000,-40.000000,30.750000
10004009,0.000000,-40.000000,30.750000
10004010,10.000000,-40.000000,30.750000
10004011,20.000000,-40.000000,30.750000
10004012,30.000000,-40.000000,30.750000
10004013,40.000000,-40.000000,30.750000
10004014,50.000000,-40.000000,30.750000
10004015,60.000000,-40.000000,30.750000
10005003,-60.000000,-30.000000,30.750000
10005004,-50.000000,-30.000000,30.750000
10005005,-40.000000,-30.000000,30.750000
10005006,-30.000000,-30.000000,30.750000
10005007,-20.000000,-30.000000,30.750000
10005008,-10.000000,-30.000000,30.750000
10005009,0.000000,-30.000000,30.750000
10005010,10.000000,-30.000000,30.750000
10005011,20.000000,-30.000000,30.750000
10005012,30.000000,-30.000000,30.750000
10005013,40.000000,-30.000000,30.750000
10005014,50.000000,-30.000000,30.750000
10005015,60.000000,-30.000000,30.750000
10006002,-70.000000,-20.000000,30.750000
10006003,-60.000000,-20.000000,30.750000
10006004,-50.000000,-20.000000,30.750000
10006005,-40.000000,-20.000000,30.750000
10006006,-30.000000,-20.000000,30.750000
10006007,-20.000000,-20.000000,30.750000
10006008,-10.000000,-20.000000,30.750000
10006009,0.000000,-20.000000,30.750000
10006010,10.000000,-20.000000,30.750000
10006011,20.000000,-20.000000,30.750000
10006012,30.000000,-20.000000,30.750000
10006013,40.000000,-20.000000,30.750000
10006014,50.000000,-20.000000,30.750000
10006015,60.000000,-20.000000,30.750000
10006016,70.000000,-20.000000,30.750000
10007002,-70.000000,-10.000000,30.750000
10007003,-60.000000,-10.000000,30.750000
10007004,-50.000000,-10.000000,30.750000
10007005,-40.000000,-10.000000,30.750000
10007006,-30.000000,-10.000000,30.750000
10007007,-20.000000,-10.000000,30.750000
10007011,20.000000,-10.000000,30.750000
10007012,30.000000,-10.000000,30.750000
10007013,40.000000,-10.000000,30.750000
10007014,50.000000,-10.000000,30.750000
10007015,60.000000,-10.000000,30.750000
10007016,70.000000,-10.000000,30.750000
10008002,-70.000000,0.000000,30.750000
10008003,-60.000000,0.000000,30.750000
10008004,-50.000000,0.000000,30.750000
10008005,-40.000000,0.000000,30.750000
10008006,-30.000000,0.000000,30.750000
10008007,-20.000000,0.000000,30.750000
10008011,20.000000,0.000000,30.750000
10008012,30.000000,0.000000,30.750000
10008013,40.000000,0.000000,30.750000
10008014,50.000000,0.000000,30.750000
10008015,60.000000,0.000000,30.750000
10008016,70.000000,0.000000,30.750000
10009002,-70.000000,10.000000,30.750000
10009003,-60.000000,10.000000,30.750000
10009004,-50.000000,10.000000,30.750000
10009005,-40.000000,10.000000,30.750000
10009006,-30.000000,10.000000,30.750000
10009007,-20.000000,10.000000,30.750000
10009011,20.000000,10.000000,30.750000
10009012,30.000000,10.000000,30.750000
10009013,40.000000,10.000000,30.750000
10009014,50.000000,10.000000,30.750000
10009015,60.000000,10.000000,30.750000
10009016,70.000000,10.000000,30.750000
10010002,-70.000000,20.000000,30.750000
10010003,-60.000000,20.000000,30.750000
10010004,-50.000000,20.000000,30.750000
10010005,-40.000000,20.000000,30.750000
10010006,-30.000000,20.000000,30.750000
10010007,-20.000000,20.000000,30.750000
10010008,-10.000000,20.000000,30.750000
10010009,0.000000,20.000000,30.750000
10010010,10.000000,20.000000,30.750000
10010011,20.000000,20.000000,30.750000
10010012,30.000000,20.000000,30.750000
10010013,40.000000,20.000000,30.750000
10010014,50.000000,20.000000,30.750000
10010015,60.000000,20.000000,30.750000
10010016,70.000000,20.000000,30.750000
10011003,-60.000000,30.000000,30.750000
10011004,-50.000000,30.000000,30.750000
10011005,-40.000000,30.000000,30.750000
10011006,-30.000000,30.000000,30.750000
10011007,-20.000000,30.000000,30.750000
10011008,-10.000000,30.000000,30.750000
10011009,0.000000,30.000000,30.750000
10011010,10.000000,30.000000,30.750000
10011011,20.000000,30.000000,30.750000
10011012,30.000000,30.000000,30.750000
10011013,40.000000,30.000000,30.750000
10011014,50.000000,30.000000,30.750000
10011015,60.000000,30.000000,30.750000
10012003,-60.000000,40.000000,30.750000
10012004,-50.000000,40.000000,30.750000
10012005,-40.000000,40.000000,30.750000
10012006,-30.000000,40.000000,30.750000
10012007,-20.000000,40.000000,30.750000
10012008,-10.000000,40.000000,30.750000
10012009,0.000000,40.000000,30.750000
10012010,10.000000,40.000000,30.750000
10012011,20.000000,40.000000,30.750000
10012012,30.000000,40.000000,30.750000
10012013,40.000000,40.000000,30.750000
10012014,50.000000,40.000000,30.750000
10012015,60.000000,40.000000,30.750000
10013004,-50.000000,50.000000,30.750000
10013005,-40.000000,50.000000,30.750000
10013006,-30.000000,50.000000,30.750000
10013007,-20.000000,50.000000,30.750000
10013008,-10.000000,50.000000,30.750000
10013009,0.000000,50.000000,30.750000
10013010,10.000000,50.000000,30.750000
10013011,20.000000,50.000000,30.750000
10013012,30.000000,50.000000,30.750000
10013013,40.000000,50.000000,30.750000
10013014,50.000000,50.000000,30.750000
10014005,-40.000000,60.000000,30.750000
10014006,-30.000000,60.000000,30.750000
10014007,-20.000000,60.000000,30.750000
10014008,-10.000000,60.000000,30.750000
10014009,0.000000,60.000000,30.750000
10014010,10.000000,60.000000,30.750000
10014011,20.000000,60.000000,30.750000
10014012,30.000000,60.000000,30.750000
10014013,40.000000,60.000000,30.750000
10015007,-20.000000,70.000000,30.750000
10015008,-10.000000,70.000000,30.750000
10015009,0.000000,70.000000,30.750000
10015010,10.000000,70.000000,30.750000
10015011,20.000000,70.000000,30.750000
99000000,0.0,0.0,30.75
99000100,70.000000,70.000000,10.75
99000101,70.000000,-70.000000,10.75
99000102,-70.000000,70.000000,10.75
99000103,-70.000000,-70.000000,10.75
99000200,57.742471,23.917715,22.75
99000201,23.917715,57.742471,22.75
99000202,-23.917715,57.742471,22.75
99000203,-57.742471,23.917715,22.75
99000204,-57.742471,-23.917715,22.75
99000205,-23.917715,-57.742471,22.75
99000206,23.917715,-57.742471,22.75
99000207,57.742471,-23.917715,22.75
*ELEMENT,TYPE=C3D8I,ELSET=EALL
1,1000001,1000002,1001002,1001001,2000001,2000002,2001002,2001001
2,1000002,1000003,1001003,1001002,2000002,2000003,2001003,2001002
3,1000003,1000004,1001004,1001003,2000003,2000004,2001004,2001003
4,1000004,1000005,1001005,1001004,2000004,2000005,2001005,2001004
5,1000005,1000006,1001006,1001005,2000005,2000006,2001006,2001005
6,1000006,1000007,1001007,1001006,2000006,2000007,2001007,2001006
7,1000007,1000008,1001008,1001007,2000007,2000008,2001008,2001007
8,1000008,1000009,1001009,1001008,2000008,2000009,2001009,2001008
9,1000009,1000010,1001010,1001009,2000009,2000010,2001010,2001009
10,1000010,1000011,1001011,1001010,2000010,2000011,2001011,2001010
11,1000011,1000012,1001012,1001011,2000011,2000012,2001012,2001011
12,1000012,1000013,1001013,1001012,2000012,2000013,2001013,2001012
13,1000013,1000014,1001014,1001013,2000013,2000014,2001014,2001013
14,1000014,1000015,1001015,1001014,2000014,2000015,2001015,2001014
15,1000015,1000016,1001016,1001015,2000015,2000016,2001016,2001015
16,1000016,1000017,1001017,1001016,2000016,2000017,2001017,2001016
17,1001001,1001002,1002002,1002001,2001001,2001002,2002002,2002001
18,1001002,1001003,1002003,1002002,2001002,2001003,2002003,2002002
19,1001003,1001004,1002004,1002003,2001003,2001004,2002004,2002003
20,1001004,1001005,1002005,1002004,2001004,2001005,2002005,2002004
21,1001005,1001006,1002006,1002005,2001005,2001006,2002006,2002005
22,1001006,1001007,1002007,1002006,2001006,2001007,2002007,2002006
23,1001007,1001008,1002008,1002007,2001007,2001008,2002008,2002007
24,1001008,1001009,1002009,1002008,2001008,2001009,2002009,2002008
25,1001009,1001010,1002010,1002009,2001009,2001010,2002010,2002009
26,1001010,1001011,1002011,1002010,2001010,2001011,2002011,2002010
27,1001011,1001012,1002012,1002011,2001011,2001012,2002012,2002011
28,1001012,1001013,1002013,1002012,2001012,2001013,2002013,2002012
29,1001013,1001014,1002014,1002013,2001013,2001014,2002014,2002013
30,1001014,1001015,1002015,1002014,2001014,2001015,2002015,2002014
31,1001015,1001016,1002016,1002015,2001015,2001016,2002016,2002015
32,1001016,1001017,1002017,1002016,2001016,2001017,2002017,2002016
33,1002001,1002002,1003002,1003001,2002001,2002002,2003002,2003001
34,1002002,1002003,1003003,1003002,2002002,2002003,2003003,2003002
35,1002003,1002004,1003004,1003003,2002003,2002004,2003004,2003003
36,1002004,1002005,1003005,1003004,2002004,2002005,2003005,2003004
37,1002005,1002006,1003006,1003005,2002005,2002006,2003006,2003005
38,1002006,1002007,1003007,1003006,2002006,2002007,2003007,2003006
39,1002007,1002008,1003008,1003007,2002007,2002008,2003008,2003007
40,1002008,1002009,1003009,1003008,2002008,2002009,2003009,2003008
41,1002009,1002010,1003010,1003009,2002009,2002010,2003010,2003009
42,1002010,1002011,1003011,1003010,2002010,2002011,2003011,2003010
43,1002011,1002012,1003012,1003011,2002011,2002012,2003012,2003011
44,1002012,1002013,1003013,1003012,2002012,2002013,2003013,2003012
45,1002013,1002014,1003014,1003013,2002013,2002014,2003014,2003013
46,1002014,1002015,1003015,1003014,2002014,2002015,2003015,2003014
47,1002015,1002016,1003016,1003015,2002015,2002016,2003016,2003015
48,1002016,1002017,1003017,1003016,2002016,2002017,2003017,2003016
49,1003001,1003002,1004002,1004001,2003001,2003002,2004002,2004001
50,1003002,1003003,1004003,1004002,2003002,2003003,2004003,2004002
51,1003003,1003004,1004004,1004003,2003003,2003004,2004004,2004003
52,1003004,1003005,1004005,1004004,2003004,2003005,2004005,2004004
53,1003005,1003006,1004006,1004005,2003005,2003006,2004006,2004005
54,1003006,1003007,1004007,1004006,2003006,2003007,2004007,2004006
55,1003007,1003008,1004008,1004007,2003007,2003008,2004008,2004007
56,1003008,1003009,1004009,1004008,2003008,2003009,2004009,2004008
57,1003009,1003010,1004010,1004009,2003009,2003010,2004010,2004009
58,1003010,1003011,1004011,1004010,2003010,2003011,2004011,2004010
59,1003011,1003012,1004012,1004011,2003011,2003012,2004012,2004011
60,1003012,1003013,1004013,1004012,2003012,2003013,2004013,2004012
61,1003013,1003014,1004014,1004013,2003013,2003014,2004014,2004013
62,1003014,1003015,1004015,1004014,2003014,2003015,2004015,2004014
63,1003015,1003016,1004016,1004015,2003015,2003016,2004016,2004015
64,1003016,1003017,1004017,1004016,2003016,2003017,2004017,2004016
65,1004001,1004002,1005002,1005001,2004001,2004002,2005002,2005001
66,1004002,1004003,1005003,1005002,2004002,2004003,2005003,2005002
67,1004003,1004004,1005004,1005003,2004003,2004004,2005004,2005003
68,1004004,1004005,1005005,1005004,2004004,2004005,2005005,2005004
69,1004005,1004006,1005006,1005005,2004005,2004006,2005006,2005005
70,1004006,1004007,1005007,1005006,2004006,2004007,2005007,2005006
71,1004007,1004008,1005008,1005007,2004007,2004008,2005008,2005007
72,1004008,1004009,1005009,1005008,2004008,2004009,2005009,2005008
73,1004009,1004010,1005010,1005009,2004009,2004010,2005010,2005009
74,1004010,1004011,1005011,1005010,2004010,2004011,2005011,2005010
75,1004011,1004012,1005012,1005011,2004011,2004012,2005012,2005011
76,1004012,1004013,1005013,1005012,2004012,2004013,2005013,2005012
77,1004013,1004014,1005014,1005013,2004013,2004014,2005014,2005013
78,1004014,1004015,1005015,1005014,2004014,2004015,2005015,2005014
79,1004015,1004016,1005016,1005015,2004015,2004016,2005016,2005015
80,1004016,1004017,1005017,1005016,2004016,2004017,2005017,2005016
81,1005001,1005002,1006002,1006001,2005001,2005002,2006002,2006001
82,1005002,1005003,1006003,1006002,2005002,2005003,2006003,2006002
83,1005003,1005004,1006004,1006003,2005003,2005004,2006004,2006003
84,1005004,1005005,1006005,1006004,2005004,2005005,2006005,2006004
85,1005005,1005006,1006006,1006005,2005005,2005006,2006006,2006005
86,1005006,1005007,1006007,1006006,2005006,2005007,2006007,2006006
87,1005007,1005008,1006008,1006007,2005007,2005008,2006008,2006007
88,1005008,1005009,1006009,1006008,2005008,2005009,2006009,2006008
89,1005009,1005010,1006010,1006009,2005009,2005010,2006010,2006009
90,1005010,1005011,1006011,1006010,2005010,2005011,2006011,2006010
91,1005011,1005012,1006012,1006011,2005011,2005012,2006012,2006011
92,1005012,1005013,1006013,1006012,2005012,2005013,2006013,2006012
93,1005013,1005014,1006014,1006013,2005013,2005014,2006014,2006013
94,1005014,1005015,1006015,1006014,2005014,2005015,2006015,2006014
95,1005015,1005016,1006016,1006015,2005015,2005016,2006016,2006015
96,1005016,1005017,1006017,1006016,2005016,2005017,2006017,2006016
97,1006001,1006002,1007002,1007001,2006001,2006002,2007002,2007001
98,1006002,1006003,1007003,1007002,2006002,2006003,2007003,2007002
99,1006003,1006004,1007004,1007003,2006003,2006004,2007004,2007003
100,1006004,1006005,1007005,1007004,2006004,2006005,2007005,2007004
101,1006005,1006006,1007006,1007005,2006005,2006006,2007006,2007005
102,1006006,1006007,1007007,1007006,2006006,2006007,2007007,2007006
103,1006011,1006012,1007012,1007011,2006011,2006012,2007012,2007011
104,1006012,1006013,1007013,1007012,2006012,2006013,2007013,2007012
105,1006013,1006014,1007014,1007013,2006013,2006014,2007014,2007013
106,1006014,1006015,1007015,1007014,2006014,2006015,2007015,2007014
107,1006015,1006016,1007016,1007015,2006015,2006016,2007016,2007015
108,1006016,1006017,1007017,1007016,2006016,2006017,2007017,2007016
109,1007001,1007002,1008002,1008001,2007001,2007002,2008002,2008001
110,1007002,1007003,1008003,1008002,2007002,2007003,2008003,2008002
111,1007003,1007004,1008004,1008003,2007003,2007004,2008004,2008003
112,1007004,1007005,1008005,1008004,2007004,2007005,2008005,2008004
113,1007005,1007006,1008006,1008005,2007005,2007006,2008006,2008005
114,1007006,1007007,1008007,1008006,2007006,2007007,2008007,2008006
115,1007011,1007012,1008012,1008011,2007011,2007012,2008012,2008011
116,1007012,1007013,1008013,1008012,2007012,2007013,2008013,2008012
117,1007013,1007014,1008014,1008013,2007013,2007014,2008014,2008013
118,1007014,1007015,1008015,1008014,2007014,2007015,2008015,2008014
119,1007015,1007016,1008016,1008015,2007015,2007016,2008016,2008015
120,1007016,1007017,1008017,1008016,2007016,2007017,2008017,2008016
121,1008001,1008002,1009002,1009001,2008001,2008002,2009002,2009001
122,1008002,1008003,1009003,1009002,2008002,2008003,2009003,2009002
123,1008003,1008004,1009004,1009003,2008003,2008004,2009004,2009003
124,1008004,1008005,1009005,1009004,2008004,2008005,2009005,2009004
125,1008005,1008006,1009006,1009005,2008005,2008006,2009006,2009005
126,1008006,1008007,1009007,1009006,2008006,2008007,2009007,2009006
127,1008011,1008012,1009012,1009011,2008011,2008012,2009012,2009011
128,1008012,1008013,1009013,1009012,2008012,2008013,2009013,2009012
129,1008013,1008014,1009014,1009013,2008013,2008014,2009014,2009013
130,1008014,1008015,1009015,1009014,2008014,2008015,2009015,2009014
131,1008015,1008016,1009016,1009015,2008015,2008016,2009016,2009015
132,1008016,1008017,1009017,1009016,2008016,2008017,2009017,2009016
133,1009001,1009002,1010002,1010001,2009001,2009002,2010002,2010001
134,1009002,1009003,1010003,1010002,2009002,2009003,2010003,2010002
135,1009003,1009004,1010004,1010003,2009003,2009004,2010004,2010003
136,1009004,1009005,1010005,1010004,2009004,2009005,2010005,2010004
137,1009005,1009006,1010006,1010005,2009005,2009006,2010006,2010005
138,1009006,1009007,1010007,1010006,2009006,2009007,2010007,2010006
139,1009011,1009012,1010012,1010011,2009011,2009012,2010012,2010011
140,1009012,1009013,1010013,1010012,2009012,2009013,2010013,2010012
141,1009013,1009014,1010014,1010013,2009013,2009014,2010014,2010013
142,1009014,1009015,1010015,1010014,2009014,2009015,2010015,2010014
143,1009015,1009016,1010016,1010015,2009015,2009016,2010016,2010015
144,1009016,1009017,1010017,1010016,2009016,2009017,2010017,2010016
145,1010001,1010002,1011002,1011001,2010001,2010002,2011002,2011001
146,1010002,1010003,1011003,1011002,2010002,2010003,2011003,2011002
147,1010003,1010004,1011004,1011003,2010003,2010004,2011004,2011003
148,1010004,1010005,1011005,1011004,2010004,2010005,2011005,2011004
149,1010005,1010006,1011006,1011005,2010005,2010006,2011006,2011005
150,1010006,1010007,1011007,1011006,2010006,2010007,2011007,2011006
151,1010007,1010008,1011008,1011007,2010007,2010008,2011008,2011007
152,1010008,1010009,1011009,1011008,2010008,2010009,2011009,2011008
153,1010009,1010010,1011010,1011009,2010009,2010010,2011010,2011009
154,1010010,1010011,1011011,1011010,2010010,2010011,2011011,2011010
155,1010011,1010012,1011012,1011011,2010011,2010012,2011012,2011011
156,1010012,1010013,1011013,1011012,2010012,2010013,2011013,2011012
157,1010013,1010014,1011014,1011013,2010013,2010014,2011014,2011013
158,1010014,1010015,1011015,1011014,2010014,2010015,2011015,2011014
159,1010015,1010016,1011016,1011015,2010015,2010016,2011016,2011015
160,1010016,1010017,1011017,1011016,2010016,2010017,2011017,2011016
161,1011001,1011002,1012002,1012001,2011001,2011002,2012002,2012001
162,1011002,1011003,1012003,1012002,2011002,2011003,2012003,2012002
163,1011003,1011004,1012004,1012003,2011003,2011004,2012004,2012003
164,1011004,1011005,1012005,1012004,2011004,2011005,2012005,2012004
165,1011005,1011006,1012006,1012005,2011005,2011006,2012006,2012005
166,1011006,1011007,1012007,1012006,2011006,2011007,2012007,2012006
167,1011007,1011008,1012008,1012007,2011007,2011008,2012008,2012007
168,1011008,1011009,1012009,1012008,2011008,2011009,2012009,2012008
169,1011009,1011010,1012010,1012009,2011009,2011010,2012010,2012009
170,1011010,1011011,1012011,1012010,2011010,2011011,2012011,2012010
171,1011011,1011012,1012012,1012011,2011011,2011012,2012012,2012011
172,1011012,1011013,1012013,1012012,2011012,2011013,2012013,2012012
173,1011013,1011014,1012014,1012013,2011013,2011014,2012014,2012013
174,1011014,1011015,1012015,1012014,2011014,2011015,2012015,2012014
175,1011015,1011016,1012016,1012015,2011015,2011016,2012016,2012015
176,1011016,1011017,1012017,1012016,2011016,2011017,2012017,2012016
177,1012001,1012002,1013002,1013001,2012001,2012002,2013002,2013001
178,1012002,1012003,1013003,1013002,2012002,2012003,2013003,2013002
179,1012003,1012004,1013004,1013003,2012003,2012004,2013004,2013003
180,1012004,1012005,1013005,1013004,2012004,2012005,2013005,2013004
181,1012005,1012006,1013006,1013005,2012005,2012006,2013006,2013005
182,1012006,1012007,1013007,1013006,2012006,2012007,2013007,2013006
183,1012007,1012008,1013008,1013007,2012007,2012008,2013008,2013007
184,1012008,1012009,1013009,1013008,2012008,2012009,2013009,2013008
185,1012009,1012010,1013010,1013009,2012009,2012010,2013010,2013009
186,1012010,1012011,1013011,1013010,2012010,2012011,2013011,2013010
187,1012011,1012012,1013012,1013011,2012011,2012012,2013012,2013011
188,1012012,1012013,1013013,1013012,2012012,2012013,2013013,2013012
189,1012013,1012014,1013014,1013013,2012013,2012014,2013014,2013013
190,1012014,1012015,1013015,1013014,2012014,2012015,2013015,2013014
191,1012015,1012016,1013016,1013015,2012015,2012016,2013016,2013015
192,1012016,1012017,1013017,1013016,2012016,2012017,2013017,2013016
193,1013001,1013002,1014002,1014001,2013001,2013002,2014002,2014001
194,1013002,1013003,1014003,1014002,2013002,2013003,2014003,2014002
195,1013003,1013004,1014004,1014003,2013003,2013004,2014004,2014003
196,1013004,1013005,1014005,1014004,2013004,2013005,2014005,2014004
197,1013005,1013006,1014006,1014005,2013005,2013006,2014006,2014005
198,1013006,1013007,1014007,1014006,2013006,2013007,2014007,2014006
199,1013007,1013008,1014008,1014007,2013007,2013008,2014008,2014007
200,1013008,1013009,1014009,1014008,2013008,2013009,2014009,2014008
201,1013009,1013010,1014010,1014009,2013009,2013010,2014010,2014009
202,1013010,1013011,1014011,1014010,2013010,2013011,2014011,2014010
203,1013011,1013012,1014012,1014011,2013011,2013012,2014012,2014011
204,1013012,1013013,1014013,1014012,2013012,2013013,2014013,2014012
205,1013013,1013014,1014014,1014013,2013013,2013014,2014014,2014013
206,1013014,1013015,1014015,1014014,2013014,2013015,2014015,2014014
207,1013015,1013016,1014016,1014015,2013015,2013016,2014016,2014015
208,1013016,1013017,1014017,1014016,2013016,2013017,2014017,2014016
209,1014001,1014002,1015002,1015001,2014001,2014002,2015002,2015001
210,1014002,1014003,1015003,1015002,2014002,2014003,2015003,2015002
211,1014003,1014004,1015004,1015003,2014003,2014004,2015004,2015003
212,1014004,1014005,1015005,1015004,2014004,2014005,2015005,2015004
213,1014005,1014006,1015006,1015005,2014005,2014006,2015006,2015005
214,1014006,1014007,1015007,1015006,2014006,2014007,2015007,2015006
215,1014007,1014008,1015008,1015007,2014007,2014008,2015008,2015007
216,1014008,1014009,1015009,1015008,2014008,2014009,2015009,2015008
217,1014009,1014010,1015010,1015009,2014009,2014010,2015010,2015009
218,1014010,1014011,1015011,1015010,2014010,2014011,2015011,2015010
219,1014011,1014012,1015012,1015011,2014011,2014012,2015012,2015011
220,1014012,1014013,1015013,1015012,2014012,2014013,2015013,2015012
221,1014013,1014014,1015014,1015013,2014013,2014014,2015014,2015013
222,1014014,1014015,1015015,1015014,2014014,2014015,2015015,2015014
223,1014015,1014016,1015016,1015015,2014015,2014016,2015016,2015015
224,1014016,1014017,1015017,1015016,2014016,2014017,2015017,2015016
225,1015001,1015002,1016002,1016001,2015001,2015002,2016002,2016001
226,1015002,1015003,1016003,1016002,2015002,2015003,2016003,2016002
227,1015003,1015004,1016004,1016003,2015003,2015004,2016004,2016003
228,1015004,1015005,1016005,1016004,2015004,2015005,2016005,2016004
229,1015005,1015006,1016006,1016005,2015005,2015006,2016006,2016005
230,1015006,1015007,1016007,1016006,2015006,2015007,2016007,2016006
231,1015007,1015008,1016008,1016007,2015007,2015008,2016008,2016007
232,1015008,1015009,1016009,1016008,2015008,2015009,2016009,2016008
233,1015009,1015010,1016010,1016009,2015009,2015010,2016010,2016009
234,1015010,1015011,1016011,1016010,2015010,2015011,2016011,2016010
235,1015011,1015012,1016012,1016011,2015011,2015012,2016012,2016011
236,1015012,1015013,1016013,1016012,2015012,2015013,2016013,2016012
237,1015013,1015014,1016014,1016013,2015013,2015014,2016014,2016013
238,1015014,1015015,1016015,1016014,2015014,2015015,2016015,2016014
239,1015015,1015016,1016016,1016015,2015015,2015016,2016016,2016015
240,1015016,1015017,1016017,1016016,2015016,2015017,2016017,2016016
241,2000001,2000002,2001002,2001001,3000001,3000002,3001002,3001001
242,2000002,2000003,2001003,2001002,3000002,3000003,3001003,3001002
243,2000003,2000004,2001004,2001003,3000003,3000004,3001004,3001003
244,2000004,2000005,2001005,2001004,3000004,3000005,3001005,3001004
245,2000005,2000006,2001006,2001005,3000005,3000006,3001006,3001005
246,2000006,2000007,2001007,2001006,3000006,3000007,3001007,3001006
247,2000007,2000008,2001008,2001007,3000007,3000008,3001008,3001007
248,2000008,2000009,2001009,2001008,3000008,3000009,3001009,3001008
249,2000009,2000010,2001010,2001009,3000009,3000010,3001010,3001009
250,2000010,2000011,2001011,2001010,3000010,3000011,3001011,3001010
251,2000011,2000012,2001012,2001011,3000011,3000012,3001012,3001011
252,2000012,2000013,2001013,2001012,3000012,3000013,3001013,3001012
253,2000013,2000014,2001014,2001013,3000013,3000014,3001014,3001013
254,2000014,2000015,2001015,2001014,3000014,3000015,3001015,3001014
255,2000015,2000016,2001016,2001015,3000015,3000016,3001016,3001015
256,2000016,2000017,2001017,2001016,3000016,3000017,3001017,3001016
257,2001001,2001002,2002002,2002001,3001001,3001002,3002002,3002001
258,2001002,2001003,2002003,2002002,3001002,3001003,3002003,3002002
259,2001003,2001004,2002004,2002003,3001003,3001004,3002004,3002003
260,2001004,2001005,2002005,2002004,3001004,3001005,3002005,3002004
261,2001005,2001006,2002006,2002005,3001005,3001006,3002006,3002005
262,2001006,2001007,2002007,2002006,3001006,3001007,3002007,3002006
263,2001007,2001008,2002008,2002007,3001007,3001008,3002008,3002007
264,2001008,2001009,2002009,2002008,3001008,3001009,3002009,3002008
265,2001009,2001010,2002010,2002009,3001009,3001010,3002010,3002009
266,2001010,2001011,2002011,2002010,3001010,3001011,3002011,3002010
267,2001011,2001012,2002012,2002011,3001011,3001012,3002012,3002011
268,2001012,2001013,2002013,2002012,3001012,3001013,3002013,3002012
269,2001013,2001014,2002014,2002013,3001013,3001014,3002014,3002013
270,2001014,2001015,2002015,2002014,3001014,3001015,3002015,3002014
271,2001015,2001016,2002016,2002015,3001015,3001016,3002016,3002015
272,2001016,2001017,2002017,2002016,3001016,3001017,3002017,3002016
273,2002001,2002002,2003002,2003001,3002001,3002002,3003002,3003001
274,2002002,2002003,2003003,2003002,3002002,3002003,3003003,3003002
275,2002003,2002004,2003004,2003003,3002003,3002004,3003004,3003003
276,2002004,2002005,2003005,2003004,3002004,3002005,3003005,3003004
277,2002005,2002006,2003006,2003005,3002005,3002006,3003006,3003005
278,2002006,2002007,2003007,2003006,3002006,3002007,3003007,3003006
279,2002007,2002008,2003008,2003007,3002007,3002008,3003008,3003007
280,2002008,2002009,2003009,2003008,3002008,3002009,3003009,3003008
281,2002009,2002010,2003010,2003009,3002009,3002010,3003010,3003009
282,2002010,2002011,2003011,2003010,3002010,3002011,3003011,3003010
283,2002011,2002012,2003012,2003011,3002011,3002012,3003012,3003011
284,2002012,2002013,2003013,2003012,3002012,3002013,3003013,3003012
285,2002013,2002014,2003014,2003013,3002013,3002014,3003014,3003013
286,2002014,2002015,2003015,2003014,3002014,3002015,3003015,3003014
287,2002015,2002016,2003016,2003015,3002015,3002016,3003016,3003015
288,2002016,2002017,2003017,2003016,3002016,3002017,3003017,3003016
289,2003001,2003002,2004002,2004001,3003001,3003002,3004002,3004001
290,2003002,2003003,2004003,2004002,3003002,3003003,3004003,3004002
291,2003003,2003004,2004004,2004003,3003003,3003004,3004004,3004003
292,2003004,2003005,2004005,2004004,3003004,3003005,3004005,3004004
293,2003005,2003006,2004006,2004005,3003005,3003006,3004006,3004005
294,2003006,2003007,2004007,2004006,3003006,3003007,3004007,3004006
295,2003007,2003008,2004008,2004007,3003007,3003008,3004008,3004007
296,2003008,2003009,2004009,2004008,3003008,3003009,3004009,3004008
297,2003009,2003010,2004010,2004009,3003009,3003010,3004010,3004009
298,2003010,2003011,2004011,2004010,3003010,3003011,3004011,3004010
299,2003011,2003012,2004012,2004011,3003011,3003012,3004012,3004011
300,2003012,2003013,2004013,2004012,3003012,3003013,3004013,3004012
301,2003013,2003014,2004014,2004013,3003013,3003014,3004014,3004013
302,2003014,2003015,2004015,2004014,3003014,3003015,3004015,3004014
303,2003015,2003016,2004016,2004015,3003015,3003016,3004016,3004015
304,2003016,2003017,2004017,2004016,3003016,3003017,3004017,3004016
305,2004001,2004002,2005002,2005001,3004001,3004002,3005002,3005001
306,2004002,2004003,2005003,2005002,3004002,3004003,3005003,3005002
307,2004003,2004004,2005004,2005003,3004003,3004004,3005004,3005003
308,2004004,2004005,2005005,2005004,3004004,3004005,3005005,3005004
309,2004005,2004006,2005006,2005005,3004005,3004006,3005006,3005005
310,2004006,2004007,2005007,2005006,3004006,3004007,3005007,3005006
311,2004007,2004008,2005008,2005007,3004007,3004008,3005008,3005007
312,2004008,2004009,2005009,2005008,3004008,3004009,3005009,3005008
313,2004009,2004010,2005010,2005009,3004009,3004010,3005010,3005009
314,2004010,2004011,2005011,2005010,3004010,3004011,3005011,3005010
315,2004011,2004012,2005012,2005011,3004011,3004012,3005012,3005011
316,2004012,2004013,2005013,2005012,3004012,3004013,3005013,3005012
317,2004013,2004014,2005014,2005013,3004013,3004014,3005014,3005013
318,2004014,2004015,2005015,2005014,3004014,3004015,3005015,3005014
319,2004015,2004016,2005016,2005015,3004015,3004016,3005016,3005015
320,2004016,2004017,2005017,2005016,3004016,3004017,3005017,3005016
321,2005001,2005002,2006002,2006001,3005001,3005002,3006002,3006001
322,2005002,2005003,2006003,2006002,3005002,3005003,3006003,3006002
323,2005003,2005004,2006004,2006003,3005003,3005004,3006004,3006003
324,2005004,2005005,2006005,2006004,3005004,3005005,3006005,3006004
325,2005005,2005006,2006006,2006005,3005005,3005006,3006006,3006005
326,2005006,2005007,2006007,2006006,3005006,3005007,3006007,3006006
327,2005007,2005008,2006008,2006007,3005007,3005008,3006008,3006007
328,2005008,2005009,2006009,2006008,3005008,3005009,3006009,3006008
329,2005009,2005010,2006010,2006009,3005009,3005010,3006010,3006009
330,2005010,2005011,2006011,2006010,3005010,3005011,3006011,3006010
331,2005011,2005012,2006012,2006011,3005011,3005012,3006012,3006011
332,2005012,2005013,2006013,2006012,3005012,3005013,3006013,3006012
333,2005013,2005014,2006014,2006013,3005013,3005014,3006014,3006013
334,2005014,2005015,2006015,2006014,3005014,3005015,3006015,3006014
335,2005015,2005016,2006016,2006015,3005015,3005016,3006016,3006015
336,2005016,2005017,2006017,2006016,3005016,3005017,3006017,3006016
337,2006001,2006002,2007002,2007001,3006001,3006002,3007002,3007001
338,2006002,2006003,2007003,2007002,3006002,3006003,3007003,3007002
339,2006003,2006004,2007004,2007003,3006003,3006004,3007004,3007003
340,2006004,2006005,2007005,2007004,3006004,3006005,3007005,3007004
341,2006005,2006006,2007006,2007005,3006005,3006006,3007006,3007005
342,2006006,2006007,2007007,2007006,3006006,3006007,3007007,3007006
343,2006011,2006012,2007012,2007011,3006011,3006012,3007012,3007011
344,2006012,2006013,2007013,2007012,3006012,3006013,3007013,3007012
345,2006013,2006014,2007014,2007013,3006013,3006014,3007014,3007013
346,2006014,2006015,2007015,2007014,3006014,3006015,3007015,3007014
347,2006015,2006016,2007016,2007015,3006015,3006016,3007016,3007015
348,2006016,2006017,2007017,2007016,3006016,3006017,3007017,3007016
349,2007001,2007002,2008002,2008001,3007001,3007002,3008002,3008001
350,2007002,2007003,2008003,2008002,3007002,3007003,3008003,3008002
351,2007003,2007004,2008004,2008003,3007003,3007004,3008004,3008003
352,2007004,2007005,2008005,2008004,3007004,3007005,3008005,3008004
353,2007005,2007006,2008006,2008005,3007005,3007006,3008006,3008005
354,2007006,2007007,2008007,2008006,3007006,3007007,3008007,3008006
355,2007011,2007012,2008012,2008011,3007011,3007012,3008012,3008011
356,2007012,2007013,2008013,2008012,3007012,3007013,3008013,3008012
357,2007013,2007014,2008014,2008013,3007013,3007014,3008014,3008013
358,2007014,2007015,2008015,2008014,3007014,3007015,3008015,3008014
359,2007015,2007016,2008016,2008015,3007015,3007016,3008016,3008015
360,2007016,2007017,2008017,2008016,3007016,3007017,3008017,3008016
361,2008001,2008002,2009002,2009001,3008001,3008002,3009002,3009001
362,2008002,2008003,2009003,2009002,3008002,3008003,3009003,3009002
363,2008003,2008004,2009004,2009003,3008003,3008004,3009004,3009003
364,2008004,2008005,2009005,2009004,3008004,3008005,3009005,3009004
365,2008005,2008006,2009006,2009005,3008005,3008006,3009006,3009005
366,2008006,2008007,2009007,2009006,3008006,3008007,3009007,3009006
367,2008011,2008012,2009012,2009011,3008011,3008012,3009012,3009011
368,2008012,2008013,2009013,2009012,3008012,3008013,3009013,3009012
369,2008013,2008014,2009014,2009013,3008013,3008014,3009014,3009013
370,2008014,2008015,2009015,2009014,3008014,3008015,3009015,3009014
371,2008015,2008016,2009016,2009015,3008015,3008016,3009016,3009015
372,2008016,2008017,2009017,2009016,3008016,3008017,3009017,3009016
373,2009001,2009002,2010002,2010001,3009001,3009002,3010002,3010001
374,2009002,2009003,2010003,2010002,3009002,3009003,3010003,3010002
375,2009003,2009004,2010004,2010003,3009003,3009004,3010004,3010003
376,2009004,2009005,2010005,2010004,3009004,3009005,3010005,3010004
377,2009005,2009006,2010006,2010005,3009005,3009006,3010006,3010005
378,2009006,2009007,2010007,2010006,3009006,3009007,3010007,3010006
379,2009011,2009012,2010012,2010011,3009011,3009012,3010012,3010011
380,2009012,2009013,2010013,2010012,3009012,3009013,3010013,3010012
381,2009013,2009014,2010014,2010013,3009013,3009014,3010014,3010013
382,2009014,2009015,2010015,2010014,3009014,3009015,3010015,3010014
383,2009015,2009016,2010016,2010015,3009015,3009016,3010016,3010015
384,2009016,2009017,2010017,2010016,3009016,3009017,3010017,3010016
385,2010001,2010002,2011002,2011001,3010001,3010002,3011002,3011001
386,2010002,2010003,2011003,2011002,3010002,3010003,3011003,3011002
387,2010003,2010004,2011004,2011003,3010003,3010004,3011004,3011003
388,2010004,2010005,2011005,2011004,3010004,3010005,3011005,3011004
389,2010005,2010006,2011006,2011005,3010005,3010006,3011006,3011005
390,2010006,2010007,2011007,2011006,3010006,3010007,3011007,3011006
391,2010007,2010008,2011008,2011007,3010007,3010008,3011008,3011007
392,2010008,2010009,2011009,2011008,3010008,3010009,3011009,3011008
393,2010009,2010010,2011010,2011009,3010009,3010010,3011010,3011009
394,2010010,2010011,2011011,2011010,3010010,3010011,3011011,3011010
395,2010011,2010012,2011012,2011011,3010011,3010012,3011012,3011011
396,2010012,2010013,2011013,2011012,3010012,3010013,3011013,3011012
397,2010013,2010014,2011014,2011013,3010013,3010014,3011014,3011013
398,2010014,2010015,2011015,2011014,3010014,3010015,3011015,3011014
399,2010015,2010016,2011016,2011015,3010015,3010016,3011016,3011015
400,2010016,2010017,2011017,2011016,3010016,3010017,3011017,3011016
401,2011001,2011002,2012002,2012001,3011001,3011002,3012002,3012001
402,2011002,2011003,2012003,2012002,3011002,3011003,3012003,3012002
403,2011003,2011004,2012004,2012003,3011003,3011004,3012004,3012003
404,2011004,2011005,2012005,2012004,3011004,3011005,3012005,3012004
405,2011005,2011006,2012006,2012005,3011005,3011006,3012006,3012005
406,2011006,2011007,2012007,2012006,3011006,3011007,3012007,3012006
407,2011007,2011008,2012008,2012007,3011007,3011008,3012008,3012007
408,2011008,2011009,2012009,2012008,3011008,3011009,3012009,3012008
409,2011009,2011010,2012010,2012009,3011009,3011010,3012010,3012009
410,2011010,2011011,2012011,2012010,3011010,3011011,3012011,3012010
411,2011011,2011012,2012012,2012011,3011011,3011012,3012012,3012011
412,2011012,2011013,2012013,2012012,3011012,3011013,3012013,3012012
413,2011013,2011014,2012014,2012013,3011013,3011014,3012014,3012013
414,2011014,2011015,2012015,2012014,3011014,3011015,3012015,3012014
415,2011015,2011016,2012016,2012015,3011015,3011016,3012016,3012015
416,2011016,2011017,2012017,2012016,3011016,3011017,3012017,3012016
417,2012001,2012002,2013002,2013001,3012001,3012002,3013002,3013001
418,2012002,2012003,2013003,2013002,3012002,3012003,3013003,3013002
419,2012003,2012004,2013004,2013003,3012003,3012004,3013004,3013003
420,2012004,2012005,2013005,2013004,3012004,3012005,3013005,3013004
421,2012005,2012006,2013006,2013005,3012005,3012006,3013006,3013005
422,2012006,2012007,2013007,2013006,3012006,3012007,3013007,3013006
423,2012007,2012008,2013008,2013007,3012007,3012008,3013008,3013007
424,2012008,2012009,2013009,2013008,3012008,3012009,3013009,3013008
425,2012009,2012010,2013010,2013009,3012009,3012010,3013010,3013009
426,2012010,2012011,2013011,2013010,3012010,3012011,3013011,3013010
427,2012011,2012012,2013012,2013011,3012011,3012012,3013012,3013011
428,2012012,2012013,2013013,2013012,3012012,3012013,3013013,3013012
429,2012013,2012014,2013014,2013013,3012013,3012014,3013014,3013013
430,2012014,2012015,2013015,2013014,3012014,3012015,3013015,3013014
431,2012015,2012016,2013016,2013015,3012015,3012016,3013016,3013015
432,2012016,2012017,2013017,2013016,3012016,3012017,3013017,3013016
433,2013001,2013002,2014002,2014001,3013001,3013002,3014002,3014001
434,2013002,2013003,2014003,2014002,3013002,3013003,3014003,3014002
435,2013003,2013004,2014004,2014003,3013003,3013004,3014004,3014003
436,2013004,2013005,2014005,2014004,3013004,3013005,3014005,3014004
437,2013005,2013006,2014006,2014005,3013005,3013006,3014006,3014005
438,2013006,2013007,2014007,2014006,3013006,3013007,3014007,3014006
439,2013007,2013008,2014008,2014007,3013007,3013008,3014008,3014007
440,2013008,2013009,2014009,2014008,3013008,3013009,3014009,3014008
441,2013009,2013010,2014010,2014009,3013009,3013010,3014010,3014009
442,2013010,2013011,2014011,2014010,3013010,3013011,3014011,3014010
443,2013011,2013012,2014012,2014011,3013011,3013012,3014012,3014011
444,2013012,2013013,2014013,2014012,3013012,3013013,3014013,3014012
445,2013013,2013014,2014014,2014013,3013013,3013014,3014014,3014013
446,2013014,2013015,2014015,2014014,3013014,3013015,3014015,3014014
447,2013015,2013016,2014016,2014015,3013015,3013016,3014016,3014015
448,2013016,2013017,2014017,2014016,3013016,3013017,3014017,3014016
449,2014001,2014002,2015002,2015001,3014001,3014002,3015002,3015001
450,2014002,2014003,2015003,2015002,3014002,3014003,3015003,3015002
451,2014003,2014004,2015004,2015003,3014003,3014004,3015004,3015003
452,2014004,2014005,2015005,2015004,3014004,3014005,3015005,3015004
453,2014005,2014006,2015006,2015005,3014005,3014006,3015006,3015005
454,2014006,2014007,2015007,2015006,3014006,3014007,3015007,3015006
455,2014007,2014008,2015008,2015007,3014007,3014008,3015008,3015007
456,2014008,2014009,2015009,2015008,3014008,3014009,3015009,3015008
457,2014009,2014010,2015010,2015009,3014009,3014010,3015010,3015009
458,2014010,2014011,2015011,2015010,3014010,3014011,3015011,3015010
459,2014011,2014012,2015012,2015011,3014011,3014012,3015012,3015011
460,2014012,2014013,2015013,2015012,3014012,3014013,3015013,3015012
461,2014013,2014014,2015014,2015013,3014013,3014014,3015014,3015013
462,2014014,2014015,2015015,2015014,3014014,3014015,3015015,3015014
463,2014015,2014016,2015016,2015015,3014015,3014016,3015016,3015015
464,2014016,2014017,2015017,2015016,3014016,3014017,3015017,3015016
465,2015001,2015002,2016002,2016001,3015001,3015002,3016002,3016001
466,2015002,2015003,2016003,2016002,3015002,3015003,3016003,3016002
467,2015003,2015004,2016004,2016003,3015003,3015004,3016004,3016003
468,2015004,2015005,2016005,2016004,3015004,3015005,3016005,3016004
469,2015005,2015006,2016006,2016005,3015005,3015006,3016006,3016005
470,2015006,2015007,2016007,2016006,3015006,3015007,3016007,3016006
471,2015007,2015008,2016008,2016007,3015007,3015008,3016008,3016007
472,2015008,2015009,2016009,2016008,3015008,3015009,3016009,3016008
473,2015009,2015010,2016010,2016009,3015009,3015010,3016010,3016009
474,2015010,2015011,2016011,2016010,3015010,3015011,3016011,3016010
475,2015011,2015012,2016012,2016011,3015011,3015012,3016012,3016011
476,2015012,2015013,2016013,2016012,3015012,3015013,3016013,3016012
477,2015013,2015014,2016014,2016013,3015013,3015014,3016014,3016013
478,2015014,2015015,2016015,2016014,3015014,3015015,3016015,3016014
479,2015015,2015016,2016016,2016015,3015015,3015016,3016016,3016015
480,2015016,2015017,2016017,2016016,3015016,3015017,3016017,3016016
481,4000001,4000002,4001002,4001001,5000001,5000002,5001002,5001001
482,4000002,4000003,4001003,4001002,5000002,5000003,5001003,5001002
483,4000003,4000004,4001004,4001003,5000003,5000004,5001004,5001003
484,4000004,4000005,4001005,4001004,5000004,5000005,5001005,5001004
485,4000005,4000006,4001006,4001005,5000005,5000006,5001006,5001005
486,4000006,4000007,4001007,4001006,5000006,5000007,5001007,5001006
487,4000007,4000008,4001008,4001007,5000007,5000008,5001008,5001007
488,4000008,4000009,4001009,4001008,5000008,5000009,5001009,5001008
489,4000009,4000010,4001010,4001009,5000009,5000010,5001010,5001009
490,4000010,4000011,4001011,4001010,5000010,5000011,5001011,5001010
491,4000011,4000012,4001012,4001011,5000011,5000012,5001012,5001011
492,4000012,4000013,4001013,4001012,5000012,5000013,5001013,5001012
493,4000013,4000014,4001014,4001013,5000013,5000014,5001014,5001013
494,4000014,4000015,4001015,4001014,5000014,5000015,5001015,5001014
495,4000015,4000016,4001016,4001015,5000015,5000016,5001016,5001015
496,4000016,4000017,4001017,4001016,5000016,5000017,5001017,5001016
497,4001001,4001002,4002002,4002001,5001001,5001002,5002002,5002001
498,4001002,4001003,4002003,4002002,5001002,5001003,5002003,5002002
499,4001003,4001004,4002004,4002003,5001003,5001004,5002004,5002003
500,4001004,4001005,4002005,4002004,5001004,5001005,5002005,5002004
501,4001005,4001006,4002006,4002005,5001005,5001006,5002006,5002005
502,4001006,4001007,4002007,4002006,5001006,5001007,5002007,5002006
503,4001007,4001008,4002008,4002007,5001007,5001008,5002008,5002007
504,4001008,4001009,4002009,4002008,5001008,5001009,5002009,5002008
505,4001009,4001010,4002010,4002009,5001009,5001010,5002010,5002009
506,4001010,4001011,4002011,4002010,5001010,5001011,5002011,5002010
507,4001011,4001012,4002012,4002011,5001011,5001012,5002012,5002011
508,4001012,4001013,4002013,4002012,5001012,5001013,5002013,5002012
509,4001013,4001014,4002014,4002013,5001013,5001014,5002014,5002013
510,4001014,4001015,4002015,4002014,5001014,5001015,5002015,5002014
511,4001015,4001016,4002016,4002015,5001015,5001016,5002016,5002015
512,4001016,4001017,4002017,4002016,5001016,5001017,5002017,5002016
513,4002001,4002002,4003002,4003001,5002001,5002002,5003002,5003001
514,4002002,4002003,4003003,4003002,5002002,5002003,5003003,5003002
515,4002003,4002004,4003004,4003003,5002003,5002004,5003004,5003003
516,4002004,4002005,4003005,4003004,5002004,5002005,5003005,5003004
517,4002005,4002006,4003006,4003005,5002005,5002006,5003006,5003005
518,4002006,4002007,4003007,4003006,5002006,5002007,5003007,5003006
519,4002007,4002008,4003008,4003007,5002007,5002008,5003008,5003007
520,4002008,4002009,4003009,4003008,5002008,5002009,5003009,5003008
521,4002009,4002010,4003010,4003009,5002009,5002010,5003010,5003009
522,4002010,4002011,4003011,4003010,5002010,5002011,5003011,5003010
523,4002011,4002012,4003012,4003011,5002011,5002012,5003012,5003011
524,4002012,4002013,4003013,4003012,5002012,5002013,5003013,5003012
525,4002013,4002014,4003014,4003013,5002013,5002014,5003014,5003013
526,4002014,4002015,4003015,4003014,5002014,5002015,5003015,5003014
527,4002015,4002016,4003016,4003015,5002015,5002016,5003016,5003015
528,4002016,4002017,4003017,4003016,5002016,5002017,5003017,5003016
529,4003001,4003002,4004002,4004001,5003001,5003002,5004002,5004001
530,4003002,4003003,4004003,4004002,5003002,5003003,5004003,5004002
531,4003003,4003004,4004004,4004003,5003003,5003004,5004004,5004003
532,4003004,4003005,4004005,4004004,5003004,5003005,5004005,5004004
533,4003005,4003006,4004006,4004005,5003005,5003006,5004006,5004005
534,4003012,4003013,4004013,4004012,5003012,5003013,5004013,5004012
535,4003013,4003014,4004014,4004013,5003013,5003014,5004014,5004013
536,4003014,4003015,4004015,4004014,5003014,5003015,5004015,5004014
537,4003015,4003016,4004016,4004015,5003015,5003016,5004016,5004015
538,4003016,4003017,4004017,4004016,5003016,5003017,5004017,5004016
539,4004001,4004002,4005002,4005001,5004001,5004002,5005002,5005001
540,4004002,4004003,4005003,4005002,5004002,5004003,5005003,5005002
541,4004003,4004004,4005004,4005003,5004003,5004004,5005004,5005003
542,4004004,4004005,4005005,4005004,5004004,5004005,5005005,5005004
543,4004013,4004014,4005014,4005013,5004013,5004014,5005014,5005013
544,4004014,4004015,4005015,4005014,5004014,5004015,5005015,5005014
545,4004015,4004016,4005016,4005015,5004015,5004016,5005016,5005015
546,4004016,4004017,4005017,4005016,5004016,5004017,5005017,5005016
547,4005001,4005002,4006002,4006001,5005001,5005002,5006002,5006001
548,4005002,4005003,4006003,4006002,5005002,5005003,5006003,5006002
549,4005003,4005004,4006004,4006003,5005003,5005004,5006004,5006003
550,4005014,4005015,4006015,4006014,5005014,5005015,5006015,5006014
551,4005015,4005016,4006016,4006015,5005015,5005016,5006016,5006015
552,4005016,4005017,4006017,4006016,5005016,5005017,5006017,5006016
553,4006001,4006002,4007002,4007001,5006001,5006002,5007002,5007001
554,4006002,4006003,4007003,4007002,5006002,5006003,5007003,5007002
555,4006003,4006004,4007004,4007003,5006003,5006004,5007004,5007003
556,4006014,4006015,4007015,4007014,5006014,5006015,5007015,5007014
557,4006015,4006016,4007016,4007015,5006015,5006016,5007016,5007015
558,4006016,4006017,4007017,4007016,5006016,5006017,5007017,5007016
559,4007001,4007002,4008002,4008001,5007001,5007002,5008002,5008001
560,4007002,4007003,4008003,4008002,5007002,5007003,5008003,5008002
561,4007003,4007004,4008004,4008003,5007003,5007004,5008004,5008003
562,4007014,4007015,4008015,4008014,5007014,5007015,5008015,5008014
563,4007015,4007016,4008016,4008015,5007015,5007016,5008016,5008015
564,4007016,4007017,4008017,4008016,5007016,5007017,5008017,5008016
565,4008001,4008002,4009002,4009001,5008001,5008002,5009002,5009001
566,4008002,4008003,4009003,4009002,5008002,5008003,5009003,5009002
567,4008003,4008004,4009004,4009003,5008003,5008004,5009004,5009003
568,4008014,4008015,4009015,4009014,5008014,5008015,5009015,5009014
569,4008015,4008016,4009016,4009015,5008015,5008016,5009016,5009015
570,4008016,4008017,4009017,4009016,5008016,5008017,5009017,5009016
571,4009001,4009002,4010002,4010001,5009001,5009002,5010002,5010001
572,4009002,4009003,4010003,4010002,5009002,5009003,5010003,5010002
573,4009003,4009004,4010004,4010003,5009003,5009004,5010004,5010003
574,4009014,4009015,4010015,4010014,5009014,5009015,5010015,5010014
575,4009015,4009016,4010016,4010015,5009015,5009016,5010016,5010015
576,4009016,4009017,4010017,4010016,5009016,5009017,5010017,5010016
577,4010001,4010002,4011002,4011001,5010001,5010002,5011002,5011001
578,4010002,4010003,4011003,4011002,5010002,5010003,5011003,5011002
579,4010003,4010004,4011004,4011003,5010003,5010004,5011004,5011003
580,4010014,4010015,4011015,4011014,5010014,5010015,5011015,5011014
581,4010015,4010016,4011016,4011015,5010015,5010016,5011016,5011015
582,4010016,4010017,4011017,4011016,5010016,5010017,5011017,5011016
583,4011001,4011002,4012002,4012001,5011001,5011002,5012002,5012001
584,4011002,4011003,4012003,4012002,5011002,5011003,5012003,5012002
585,4011003,4011004,4012004,4012003,5011003,5011004,5012004,5012003
586,4011004,4011005,4012005,4012004,5011004,5011005,5012005,5012004
587,4011013,4011014,4012014,4012013,5011013,5011014,5012014,5012013
588,4011014,4011015,4012015,4012014,5011014,5011015,5012015,5012014
589,4011015,4011016,4012016,4012015,5011015,5011016,5012016,5012015
590,4011016,4011017,4012017,4012016,5011016,5011017,5012017,5012016
591,4012001,4012002,4013002,4013001,5012001,5012002,5013002,5013001
592,4012002,4012003,4013003,4013002,5012002,5012003,5013003,5013002
593,4012003,4012004,4013004,4013003,5012003,5012004,5013004,5013003
594,4012004,4012005,4013005,4013004,5012004,5012005,5013005,5013004
595,4012005,4012006,4013006,4013005,5012005,5012006,5013006,5013005
596,4012012,4012013,4013013,4013012,5012012,5012013,5013013,5013012
597,4012013,4012014,4013014,4013013,5012013,5012014,5013014,5013013
598,4012014,4012015,4013015,4013014,5012014,5012015,5013015,5013014
599,4012015,4012016,4013016,4013015,5012015,5012016,5013016,5013015
600,4012016,4012017,4013017,4013016,5012016,5012017,5013017,5013016
601,4013001,4013002,4014002,4014001,5013001,5013002,5014002,5014001
602,4013002,4013003,4014003,4014002,5013002,5013003,5014003,5014002
603,4013003,4013004,4014004,4014003,5013003,5013004,5014004,5014003
604,4013004,4013005,4014005,4014004,5013004,5013005,5014005,5014004
605,4013005,4013006,4014006,4014005,5013005,5013006,5014006,5014005
606,4013006,4013007,4014007,4014006,5013006,5013007,5014007,5014006
607,4013007,4013008,4014008,4014007,5013007,5013008,5014008,5014007
608,4013008,4013009,4014009,4014008,5013008,5013009,5014009,5014008
609,4013009,4013010,4014010,4014009,5013009,5013010,5014010,5014009
610,4013010,4013011,4014011,4014010,5013010,5013011,5014011,5014010
611,4013011,4013012,4014012,4014011,5013011,5013012,5014012,5014011
612,4013012,4013013,4014013,4014012,5013012,5013013,5014013,5014012
613,4013013,4013014,4014014,4014013,5013013,5013014,5014014,5014013
614,4013014,4013015,4014015,4014014,5013014,5013015,5014015,5014014
615,4013015,4013016,4014016,4014015,5013015,5013016,5014016,5014015
616,4013016,4013017,4014017,4014016,5013016,5013017,5014017,5014016
617,4014001,4014002,4015002,4015001,5014001,5014002,5015002,5015001
618,4014002,4014003,4015003,4015002,5014002,5014003,5015003,5015002
619,4014003,4014004,4015004,4015003,5014003,5014004,5015004,5015003
620,4014004,4014005,4015005,4015004,5014004,5014005,5015005,5015004
621,4014005,4014006,4015006,4015005,5014005,5014006,5015006,5015005
622,4014006,4014007,4015007,4015006,5014006,5014007,5015007,5015006
623,4014007,4014008,4015008,4015007,5014007,5014008,5015008,5015007
624,4014008,4014009,4015009,4015008,5014008,5014009,5015009,5015008
625,4014009,4014010,4015010,4015009,5014009,5014010,5015010,5015009
626,4014010,4014011,4015011,4015010,5014010,5014011,5015011,5015010
627,4014011,4014012,4015012,4015011,5014011,5014012,5015012,5015011
628,4014012,4014013,4015013,4015012,5014012,5014013,5015013,5015012
629,4014013,4014014,4015014,4015013,5014013,5014014,5015014,5015013
630,4014014,4014015,4015015,4015014,5014014,5014015,5015015,5015014
631,4014015,4014016,4015016,4015015,5014015,5014016,5015016,5015015
632,4014016,4014017,4015017,4015016,5014016,5014017,5015017,5015016
633,4015001,4015002,4016002,4016001,5015001,5015002,5016002,5016001
634,4015002,4015003,4016003,4016002,5015002,5015003,5016003,5016002
635,4015003,4015004,4016004,4016003,5015003,5015004,5016004,5016003
636,4015004,4015005,4016005,4016004,5015004,5015005,5016005,5016004
637,4015005,4015006,4016006,4016005,5015005,5015006,5016006,5016005
638,4015006,4015007,4016007,4016006,5015006,5015007,5016007,5016006
639,4015007,4015008,4016008,4016007,5015007,5015008,5016008,5016007
640,4015008,4015009,4016009,4016008,5015008,5015009,5016009,5016008
641,4015009,4015010,4016010,4016009,5015009,5015010,5016010,5016009
642,4015010,4015011,4016011,4016010,5015010,5015011,5016011,5016010
643,4015011,4015012,4016012,4016011,5015011,5015012,5016012,5016011
644,4015012,4015013,4016013,4016012,5015012,5015013,5016013,5016012
645,4015013,4015014,4016014,4016013,5015013,5015014,5016014,5016013
646,4015014,4015015,4016015,4016014,5015014,5015015,5016015,5016014
647,4015015,4015016,4016016,4016015,5015015,5015016,5016016,5016015
648,4015016,4015017,4016017,4016016,5015016,5015017,5016017,5016016
649,5000001,5000002,5001002,5001001,6000001,6000002,6001002,6001001
650,5000002,5000003,5001003,5001002,6000002,6000003,6001003,6001002
651,5000003,5000004,5001004,5001003,6000003,6000004,6001004,6001003
652,5000004,5000005,5001005,5001004,6000004,6000005,6001005,6001004
653,5000005,5000006,5001006,5001005,6000005,6000006,6001006,6001005
654,5000006,5000007,5001007,5001006,6000006,6000007,6001007,6001006
655,5000007,5000008,5001008,5001007,6000007,6000008,6001008,6001007
656,5000008,5000009,5001009,5001008,6000008,6000009,6001009,6001008
657,5000009,5000010,5001010,5001009,6000009,6000010,6001010,6001009
658,5000010,5000011,5001011,5001010,6000010,6000011,6001011,6001010
659,5000011,5000012,5001012,5001011,6000011,6000012,6001012,6001011
660,5000012,5000013,5001013,5001012,6000012,6000013,6001013,6001012
661,5000013,5000014,5001014,5001013,6000013,6000014,6001014,6001013
662,5000014,5000015,5001015,5001014,6000014,6000015,6001015,6001014
663,5000015,5000016,5001016,5001015,6000015,6000016,6001016,6001015
664,5000016,5000017,5001017,5001016,6000016,6000017,6001017,6001016
665,5001001,5001002,5002002,5002001,6001001,6001002,6002002,6002001
666,5001002,5001003,5002003,5002002,6001002,6001003,6002003,6002002
667,5001003,5001004,5002004,5002003,6001003,6001004,6002004,6002003
668,5001004,5001005,5002005,5002004,6001004,6001005,6002005,6002004
669,5001005,5001006,5002006,5002005,6001005,6001006,6002006,6002005
670,5001006,5001007,5002007,5002006,6001006,6001007,6002007,6002006
671,5001007,5001008,5002008,5002007,6001007,6001008,6002008,6002007
672,5001008,5001009,5002009,5002008,6001008,6001009,6002009,6002008
673,5001009,5001010,5002010,5002009,6001009,6001010,6002010,6002009
674,5001010,5001011,5002011,5002010,6001010,6001011,6002011,6002010
675,5001011,5001012,5002012,5002011,6001011,6001012,6002012,6002011
676,5001012,5001013,5002013,5002012,6001012,6001013,6002013,6002012
677,5001013,5001014,5002014,5002013,6001013,6001014,6002014,6002013
678,5001014,5001015,5002015,5002014,6001014,6001015,6002015,6002014
679,5001015,5001016,5002016,5002015,6001015,6001016,6002016,6002015
680,5001016,5001017,5002017,5002016,6001016,6001017,6002017,6002016
681,5002001,5002002,5003002,5003001,6002001,6002002,6003002,6003001
682,5002002,5002003,5003003,5003002,6002002,6002003,6003003,6003002
683,5002003,5002004,5003004,5003003,6002003,6002004,6003004,6003003
684,5002004,5002005,5003005,5003004,6002004,6002005,6003005,6003004
685,5002005,5002006,5003006,5003005,6002005,6002006,6003006,6003005
686,5002006,5002007,5003007,5003006,6002006,6002007,6003007,6003006
687,5002007,5002008,5003008,5003007,6002007,6002008,6003008,6003007
688,5002008,5002009,5003009,5003008,6002008,6002009,6003009,6003008
689,5002009,5002010,5003010,5003009,6002009,6002010,6003010,6003009
690,5002010,5002011,5003011,5003010,6002010,6002011,6003011,6003010
691,5002011,5002012,5003012,5003011,6002011,6002012,6003012,6003011
692,5002012,5002013,5003013,5003012,6002012,6002013,6003013,6003012
693,5002013,5002014,5003014,5003013,6002013,6002014,6003014,6003013
694,5002014,5002015,5003015,5003014,6002014,6002015,6003015,6003014
695,5002015,5002016,5003016,5003015,6002015,6002016,6003016,6003015
696,5002016,5002017,5003017,5003016,6002016,6002017,6003017,6003016
697,5003001,5003002,5004002,5004001,6003001,6003002,6004002,6004001
698,5003002,5003003,5004003,5004002,6003002,6003003,6004003,6004002
699,5003003,5003004,5004004,5004003,6003003,6003004,6004004,6004003
700,5003004,5003005,5004005,5004004,6003004,6003005,6004005,6004004
701,5003005,5003006,5004006,5004005,6003005,6003006,6004006,6004005
702,5003012,5003013,5004013,5004012,6003012,6003013,6004013,6004012
703,5003013,5003014,5004014,5004013,6003013,6003014,6004014,6004013
704,5003014,5003015,5004015,5004014,6003014,6003015,6004015,6004014
705,5003015,5003016,5004016,5004015,6003015,6003016,6004016,6004015
706,5003016,5003017,5004017,5004016,6003016,6003017,6004017,6004016
707,5004001,5004002,5005002,5005001,6004001,6004002,6005002,6005001
708,5004002,5004003,5005003,5005002,6004002,6004003,6005003,6005002
709,5004003,5004004,5005004,5005003,6004003,6004004,6005004,6005003
710,5004004,5004005,5005005,5005004,6004004,6004005,6005005,6005004
711,5004013,5004014,5005014,5005013,6004013,6004014,6005014,6005013
712,5004014,5004015,5005015,5005014,6004014,6004015,6005015,6005014
713,5004015,5004016,5005016,5005015,6004015,6004016,6005016,6005015
714,5004016,5004017,5005017,5005016,6004016,6004017,6005017,6005016
715,5005001,5005002,5006002,5006001,6005001,6005002,6006002,6006001
716,5005002,5005003,5006003,5006002,6005002,6005003,6006003,6006002
717,5005003,5005004,5006004,5006003,6005003,6005004,6006004,6006003
718,5005014,5005015,5006015,5006014,6005014,6005015,6006015,6006014
719,5005015,5005016,5006016,5006015,6005015,6005016,6006016,6006015
720,5005016,5005017,5006017,5006016,6005016,6005017,6006017,6006016
721,5006001,5006002,5007002,5007001,6006001,6006002,6007002,6007001
722,5006002,5006003,5007003,5007002,6006002,6006003,6007003,6007002
723,5006003,5006004,5007004,5007003,6006003,6006004,6007004,6007003
724,5006014,5006015,5007015,5007014,6006014,6006015,6007015,6007014
725,5006015,5006016,5007016,5007015,6006015,6006016,6007016,6007015
726,5006016,5006017,5007017,5007016,6006016,6006017,6007017,6007016
727,5007001,5007002,5008002,5008001,6007001,6007002,6008002,6008001
728,5007002,5007003,5008003,5008002,6007002,6007003,6008003,6008002
729,5007003,5007004,5008004,5008003,6007003,6007004,6008004,6008003
730,5007014,5007015,5008015,5008014,6007014,6007015,6008015,6008014
731,5007015,5007016,5008016,5008015,6007015,6007016,6008016,6008015
732,5007016,5007017,5008017,5008016,6007016,6007017,6008017,6008016
733,5008001,5008002,5009002,5009001,6008001,6008002,6009002,6009001
734,5008002,5008003,5009003,5009002,6008002,6008003,6009003,6009002
735,5008003,5008004,5009004,5009003,6008003,6008004,6009004,6009003
736,5008014,5008015,5009015,5009014,6008014,6008015,6009015,6009014
737,5008015,5008016,5009016,5009015,6008015,6008016,6009016,6009015
738,5008016,5008017,5009017,5009016,6008016,6008017,6009017,6009016
739,5009001,5009002,5010002,5010001,6009001,6009002,6010002,6010001
740,5009002,5009003,5010003,5010002,6009002,6009003,6010003,6010002
741,5009003,5009004,5010004,5010003,6009003,6009004,6010004,6010003
742,5009014,5009015,5010015,5010014,6009014,6009015,6010015,6010014
743,5009015,5009016,5010016,5010015,6009015,6009016,6010016,6010015
744,5009016,5009017,5010017,5010016,6009016,6009017,6010017,6010016
745,5010001,5010002,5011002,5011001,6010001,6010002,6011002,6011001
746,5010002,5010003,5011003,5011002,6010002,6010003,6011003,6011002
747,5010003,5010004,5011004,5011003,6010003,6010004,6011004,6011003
748,5010014,5010015,5011015,5011014,6010014,6010015,6011015,6011014
749,5010015,5010016,5011016,5011015,6010015,6010016,6011016,6011015
750,5010016,5010017,5011017,5011016,6010016,6010017,6011017,6011016
751,5011001,5011002,5012002,5012001,6011001,6011002,6012002,6012001
752,5011002,5011003,5012003,5012002,6011002,6011003,6012003,6012002
753,5011003,5011004,5012004,5012003,6011003,6011004,6012004,6012003
754,5011004,5011005,5012005,5012004,6011004,6011005,6012005,6012004
755,5011013,5011014,5012014,5012013,6011013,6011014,6012014,6012013
756,5011014,5011015,5012015,5012014,6011014,6011015,6012015,6012014
757,5011015,5011016,5012016,5012015,6011015,6011016,6012016,6012015
758,5011016,5011017,5012017,5012016,6011016,6011017,6012017,6012016
759,5012001,5012002,5013002,5013001,6012001,6012002,6013002,6013001
760,5012002,5012003,5013003,5013002,6012002,6012003,6013003,6013002
761,5012003,5012004,5013004,5013003,6012003,6012004,6013004,6013003
762,5012004,5012005,5013005,5013004,6012004,6012005,6013005,6013004
763,5012005,5012006,5013006,5013005,6012005,6012006,6013006,6013005
764,5012012,5012013,5013013,5013012,6012012,6012013,6013013,6013012
765,5012013,5012014,5013014,5013013,6012013,6012014,6013014,6013013
766,5012014,5012015,5013015,5013014,6012014,6012015,6013015,6013014
767,5012015,5012016,5013016,5013015,6012015,6012016,6013016,6013015
768,5012016,5012017,5013017,5013016,6012016,6012017,6013017,6013016
769,5013001,5013002,5014002,5014001,6013001,6013002,6014002,6014001
770,5013002,5013003,5014003,5014002,6013002,6013003,6014003,6014002
771,5013003,5013004,5014004,5014003,6013003,6013004,6014004,6014003
772,5013004,5013005,5014005,5014004,6013004,6013005,6014005,6014004
773,5013005,5013006,5014006,5014005,6013005,6013006,6014006,6014005
774,5013006,5013007,5014007,5014006,6013006,6013007,6014007,6014006
775,5013007,5013008,5014008,5014007,6013007,6013008,6014008,6014007
776,5013008,5013009,5014009,5014008,6013008,6013009,6014009,6014008
777,5013009,5013010,5014010,5014009,6013009,6013010,6014010,6014009
778,5013010,5013011,5014011,5014010,6013010,6013011,6014011,6014010
779,5013011,5013012,5014012,5014011,6013011,6013012,6014012,6014011
780,5013012,5013013,5014013,5014012,6013012,6013013,6014013,6014012
781,5013013,5013014,5014014,5014013,6013013,6013014,6014014,6014013
782,5013014,5013015,5014015,5014014,6013014,6013015,6014015,6014014
783,5013015,5013016,5014016,5014015,6013015,6013016,6014016,6014015
784,5013016,5013017,5014017,5014016,6013016,6013017,6014017,6014016
785,5014001,5014002,5015002,5015001,6014001,6014002,6015002,6015001
786,5014002,5014003,5015003,5015002,6014002,6014003,6015003,6015002
787,5014003,5014004,5015004,5015003,6014003,6014004,6015004,6015003
788,5014004,5014005,5015005,5015004,6014004,6014005,6015005,6015004
789,5014005,5014006,5015006,5015005,6014005,6014006,6015006,6015005
790,5014006,5014007,5015007,5015006,6014006,6014007,6015007,6015006
791,5014007,5014008,5015008,5015007,6014007,6014008,6015008,6015007
792,5014008,5014009,5015009,5015008,6014008,6014009,6015009,6015008
793,5014009,5014010,5015010,5015009,6014009,6014010,6015010,6015009
794,5014010,5014011,5015011,5015010,6014010,6014011,6015011,6015010
795,5014011,5014012,5015012,5015011,6014011,6014012,6015012,6015011
796,5014012,5014013,5015013,5015012,6014012,6014013,6015013,6015012
797,5014013,5014014,5015014,5015013,6014013,6014014,6015014,6015013
798,5014014,5014015,5015015,5015014,6014014,6014015,6015015,6015014
799,5014015,5014016,5015016,5015015,6014015,6014016,6015016,6015015
800,5014016,5014017,5015017,5015016,6014016,6014017,6015017,6015016
801,5015001,5015002,5016002,5016001,6015001,6015002,6016002,6016001
802,5015002,5015003,5016003,5016002,6015002,6015003,6016003,6016002
803,5015003,5015004,5016004,5016003,6015003,6015004,6016004,6016003
804,5015004,5015005,5016005,5016004,6015004,6015005,6016005,6016004
805,5015005,5015006,5016006,5016005,6015005,6015006,6016006,6016005
806,5015006,5015007,5016007,5016006,6015006,6015007,6016007,6016006
807,5015007,5015008,5016008,5016007,6015007,6015008,6016008,6016007
808,5015008,5015009,5016009,5016008,6015008,6015009,6016009,6016008
809,5015009,5015010,5016010,5016009,6015009,6015010,6016010,6016009
810,5015010,5015011,5016011,5016010,6015010,6015011,6016011,6016010
811,5015011,5015012,5016012,5016011,6015011,6015012,6016012,6016011
812,5015012,5015013,5016013,5016012,6015012,6015013,6016013,6016012
813,5015013,5015014,5016014,5016013,6015013,6015014,6016014,6016013
814,5015014,5015015,5016015,5016014,6015014,6015015,6016015,6016014
815,5015015,5015016,5016016,5016015,6015015,6015016,6016016,6016015
816,5015016,5015017,5016017,5016016,6015016,6015017,6016017,6016016
817,6000001,6000002,6001002,6001001,7000001,7000002,7001002,7001001
818,6000002,6000003,6001003,6001002,7000002,7000003,7001003,7001002
819,6000003,6000004,6001004,6001003,7000003,7000004,7001004,7001003
820,6000004,6000005,6001005,6001004,7000004,7000005,7001005,7001004
821,6000005,6000006,6001006,6001005,7000005,7000006,7001006,7001005
822,6000006,6000007,6001007,6001006,7000006,7000007,7001007,7001006
823,6000007,6000008,6001008,6001007,7000007,7000008,7001008,7001007
824,6000008,6000009,6001009,6001008,7000008,7000009,7001009,7001008
825,6000009,6000010,6001010,6001009,7000009,7000010,7001010,7001009
826,6000010,6000011,6001011,6001010,7000010,7000011,7001011,7001010
827,6000011,6000012,6001012,6001011,7000011,7000012,7001012,7001011
828,6000012,6000013,6001013,6001012,7000012,7000013,7001013,7001012
829,6000013,6000014,6001014,6001013,7000013,7000014,7001014,7001013
830,6000014,6000015,6001015,6001014,7000014,7000015,7001015,7001014
831,6000015,6000016,6001016,6001015,7000015,7000016,7001016,7001015
832,6000016,6000017,6001017,6001016,7000016,7000017,7001017,7001016
833,6001001,6001002,6002002,6002001,7001001,7001002,7002002,7002001
834,6001002,6001003,6002003,6002002,7001002,7001003,7002003,7002002
835,6001003,6001004,6002004,6002003,7001003,7001004,7002004,7002003
836,6001004,6001005,6002005,6002004,7001004,7001005,7002005,7002004
837,6001005,6001006,6002006,6002005,7001005,7001006,7002006,7002005
838,6001006,6001007,6002007,6002006,7001006,7001007,7002007,7002006
839,6001007,6001008,6002008,6002007,7001007,7001008,7002008,7002007
840,6001008,6001009,6002009,6002008,7001008,7001009,7002009,7002008
841,6001009,6001010,6002010,6002009,7001009,7001010,7002010,7002009
842,6001010,6001011,6002011,6002010,7001010,7001011,7002011,7002010
843,6001011,6001012,6002012,6002011,7001011,7001012,7002012,7002011
844,6001012,6001013,6002013,6002012,7001012,7001013,7002013,7002012
845,6001013,6001014,6002014,6002013,7001013,7001014,7002014,7002013
846,6001014,6001015,6002015,6002014,7001014,7001015,7002015,7002014
847,6001015,6001016,6002016,6002015,7001015,7001016,7002016,7002015
848,6001016,6001017,6002017,6002016,7001016,7001017,7002017,7002016
849,6002001,6002002,6003002,6003001,7002001,7002002,7003002,7003001
850,6002002,6002003,6003003,6003002,7002002,7002003,7003003,7003002
851,6002003,6002004,6003004,6003003,7002003,7002004,7003004,7003003
852,6002004,6002005,6003005,6003004,7002004,7002005,7003005,7003004
853,6002005,6002006,6003006,6003005,7002005,7002006,7003006,7003005
854,6002006,6002007,6003007,6003006,7002006,7002007,7003007,7003006
855,6002007,6002008,6003008,6003007,7002007,7002008,7003008,7003007
856,6002008,6002009,6003009,6003008,7002008,7002009,7003009,7003008
857,6002009,6002010,6003010,6003009,7002009,7002010,7003010,7003009
858,6002010,6002011,6003011,6003010,7002010,7002011,7003011,7003010
859,6002011,6002012,6003012,6003011,7002011,7002012,7003012,7003011
860,6002012,6002013,6003013,6003012,7002012,7002013,7003013,7003012
861,6002013,6002014,6003014,6003013,7002013,7002014,7003014,7003013
862,6002014,6002015,6003015,6003014,7002014,7002015,7003015,7003014
863,6002015,6002016,6003016,6003015,7002015,7002016,7003016,7003015
864,6002016,6002017,6003017,6003016,7002016,7002017,7003017,7003016
865,6003001,6003002,6004002,6004001,7003001,7003002,7004002,7004001
866,6003002,6003003,6004003,6004002,7003002,7003003,7004003,7004002
867,6003003,6003004,6004004,6004003,7003003,7003004,7004004,7004003
868,6003004,6003005,6004005,6004004,7003004,7003005,7004005,7004004
869,6003005,6003006,6004006,6004005,7003005,7003006,7004006,7004005
870,6003006,6003007,6004007,6004006,7003006,7003007,7004007,7004006
871,6003007,6003008,6004008,6004007,7003007,7003008,7004008,7004007
872,6003008,6003009,6004009,6004008,7003008,7003009,7004009,7004008
873,6003009,6003010,6004010,6004009,7003009,7003010,7004010,7004009
874,6003010,6003011,6004011,6004010,7003010,7003011,7004011,7004010
875,6003011,6003012,6004012,6004011,7003011,7003012,7004012,7004011
876,6003012,6003013,6004013,6004012,7003012,7003013,7004013,7004012
877,6003013,6003014,6004014,6004013,7003013,7003014,7004014,7004013
878,6003014,6003015,6004015,6004014,7003014,7003015,7004015,7004014
879,6003015,6003016,6004016,6004015,7003015,7003016,7004016,7004015
880,6003016,6003017,6004017,6004016,7003016,7003017,7004017,7004016
881,6004001,6004002,6005002,6005001,7004001,7004002,7005002,7005001
882,6004002,6004003,6005003,6005002,7004002,7004003,7005003,7005002
883,6004003,6004004,6005004,6005003,7004003,7004004,7005004,7005003
884,6004004,6004005,6005005,6005004,7004004,7004005,7005005,7005004
885,6004005,6004006,6005006,6005005,7004005,7004006,7005006,7005005
886,6004006,6004007,6005007,6005006,7004006,7004007,7005007,7005006
887,6004007,6004008,6005008,6005007,7004007,7004008,7005008,7005007
888,6004008,6004009,6005009,6005008,7004008,7004009,7005009,7005008
889,6004009,6004010,6005010,6005009,7004009,7004010,7005010,7005009
890,6004010,6004011,6005011,6005010,7004010,7004011,7005011,7005010
891,6004011,6004012,6005012,6005011,7004011,7004012,7005012,7005011
892,6004012,6004013,6005013,6005012,7004012,7004013,7005013,7005012
893,6004013,6004014,6005014,6005013,7004013,7004014,7005014,7005013
894,6004014,6004015,6005015,6005014,7004014,7004015,7005015,7005014
895,6004015,6004016,6005016,6005015,7004015,7004016,7005016,7005015
896,6004016,6004017,6005017,6005016,7004016,7004017,7005017,7005016
897,6005001,6005002,6006002,6006001,7005001,7005002,7006002,7006001
898,6005002,6005003,6006003,6006002,7005002,7005003,7006003,7006002
899,6005003,6005004,6006004,6006003,7005003,7005004,7006004,7006003
900,6005004,6005005,6006005,6006004,7005004,7005005,7006005,7006004
901,6005005,6005006,6006006,6006005,7005005,7005006,7006006,7006005
902,6005006,6005007,6006007,6006006,7005006,7005007,7006007,7006006
903,6005007,6005008,6006008,6006007,7005007,7005008,7006008,7006007
904,6005008,6005009,6006009,6006008,7005008,7005009,7006009,7006008
905,6005009,6005010,6006010,6006009,7005009,7005010,7006010,7006009
906,6005010,6005011,6006011,6006010,7005010,7005011,7006011,7006010
907,6005011,6005012,6006012,6006011,7005011,7005012,7006012,7006011
908,6005012,6005013,6006013,6006012,7005012,7005013,7006013,7006012
909,6005013,6005014,6006014,6006013,7005013,7005014,7006014,7006013
910,6005014,6005015,6006015,6006014,7005014,7005015,7006015,7006014
911,6005015,6005016,6006016,6006015,7005015,7005016,7006016,7006015
912,6005016,6005017,6006017,6006016,7005016,7005017,7006017,7006016
913,6006001,6006002,6007002,6007001,7006001,7006002,7007002,7007001
914,6006002,6006003,6007003,6007002,7006002,7006003,7007003,7007002
915,6006003,6006004,6007004,6007003,7006003,7006004,7007004,7007003
916,6006004,6006005,6007005,6007004,7006004,7006005,7007005,7007004
917,6006005,6006006,6007006,6007005,7006005,7006006,7007006,7007005
918,6006006,6006007,6007007,6007006,7006006,7006007,7007007,7007006
919,6006007,6006008,6007008,6007007,7006007,7006008,7007008,7007007
920,6006008,6006009,6007009,6007008,7006008,7006009,7007009,7007008
921,6006009,6006010,6007010,6007009,7006009,7006010,7007010,7007009
922,6006010,6006011,6007011,6007010,7006010,7006011,7007011,7007010
923,6006011,6006012,6007012,6007011,7006011,7006012,7007012,7007011
924,6006012,6006013,6007013,6007012,7006012,7006013,7007013,7007012
925,6006013,6006014,6007014,6007013,7006013,7006014,7007014,7007013
926,6006014,6006015,6007015,6007014,7006014,7006015,7007015,7007014
927,6006015,6006016,6007016,6007015,7006015,7006016,7007016,7007015
928,6006016,6006017,6007017,6007016,7006016,7006017,7007017,7007016
929,6007001,6007002,6008002,6008001,7007001,7007002,7008002,7008001
930,6007002,6007003,6008003,6008002,7007002,7007003,7008003,7008002
931,6007003,6007004,6008004,6008003,7007003,7007004,7008004,7008003
932,6007004,6007005,6008005,6008004,7007004,7007005,7008005,7008004
933,6007005,6007006,6008006,6008005,7007005,7007006,7008006,7008005
934,6007006,6007007,6008007,6008006,7007006,7007007,7008007,7008006
935,6007007,6007008,6008008,6008007,7007007,7007008,7008008,7008007
936,6007008,6007009,6008009,6008008,7007008,7007009,7008009,7008008
937,6007009,6007010,6008010,6008009,7007009,7007010,7008010,7008009
938,6007010,6007011,6008011,6008010,7007010,7007011,7008011,7008010
939,6007011,6007012,6008012,6008011,7007011,7007012,7008012,7008011
940,6007012,6007013,6008013,6008012,7007012,7007013,7008013,7008012
941,6007013,6007014,6008014,6008013,7007013,7007014,7008014,7008013
942,6007014,6007015,6008015,6008014,7007014,7007015,7008015,7008014
943,6007015,6007016,6008016,6008015,7007015,7007016,7008016,7008015
944,6007016,6007017,6008017,6008016,7007016,7007017,7008017,7008016
945,6008001,6008002,6009002,6009001,7008001,7008002,7009002,7009001
946,6008002,6008003,6009003,6009002,7008002,7008003,7009003,7009002
947,6008003,6008004,6009004,6009003,7008003,7008004,7009004,7009003
948,6008004,6008005,6009005,6009004,7008004,7008005,7009005,7009004
949,6008005,6008006,6009006,6009005,7008005,7008006,7009006,7009005
950,6008006,6008007,6009007,6009006,7008006,7008007,7009007,7009006
951,6008007,6008008,6009008,6009007,7008007,7008008,7009008,7009007
952,6008008,6008009,6009009,6009008,7008008,7008009,7009009,7009008
953,6008009,6008010,6009010,6009009,7008009,7008010,7009010,7009009
954,6008010,6008011,6009011,6009010,7008010,7008011,7009011,7009010
955,6008011,6008012,6009012,6009011,7008011,7008012,7009012,7009011
956,6008012,6008013,6009013,6009012,7008012,7008013,7009013,7009012
957,6008013,6008014,6009014,6009013,7008013,7008014,7009014,7009013
958,6008014,6008015,6009015,6009014,7008014,7008015,7009015,7009014
959,6008015,6008016,6009016,6009015,7008015,7008016,7009016,7009015
960,6008016,6008017,6009017,6009016,7008016,7008017,7009017,7009016
961,6009001,6009002,6010002,6010001,7009001,7009002,7010002,7010001
962,6009002,6009003,6010003,6010002,7009002,7009003,7010003,7010002
963,6009003,6009004,6010004,6010003,7009003,7009004,7010004,7010003
964,6009004,6009005,6010005,6010004,7009004,7009005,7010005,7010004
965,6009005,6009006,6010006,6010005,7009005,7009006,7010006,7010005
966,6009006,6009007,6010007,6010006,7009006,7009007,7010007,7010006
967,6009007,6009008,6010008,6010007,7009007,7009008,7010008,7010007
968,6009008,6009009,6010009,6010008,7009008,7009009,7010009,7010008
969,6009009,6009010,6010010,6010009,7009009,7009010,7010010,7010009
970,6009010,6009011,6010011,6010010,7009010,7009011,7010011,7010010
971,6009011,6009012,6010012,6010011,7009011,7009012,7010012,7010011
972,6009012,6009013,6010013,6010012,7009012,7009013,7010013,7010012
973,6009013,6009014,6010014,6010013,7009013,7009014,7010014,7010013
974,6009014,6009015,6010015,6010014,7009014,7009015,7010015,7010014
975,6009015,6009016,6010016,6010015,7009015,7009016,7010016,7010015
976,6009016,6009017,6010017,6010016,7009016,7009017,7010017,7010016
977,6010001,6010002,6011002,6011001,7010001,7010002,7011002,7011001
978,6010002,6010003,6011003,6011002,7010002,7010003,7011003,7011002
979,6010003,6010004,6011004,6011003,7010003,7010004,7011004,7011003
980,6010004,6010005,6011005,6011004,7010004,7010005,7011005,7011004
981,6010005,6010006,6011006,6011005,7010005,7010006,7011006,7011005
982,6010006,6010007,6011007,6011006,7010006,7010007,7011007,7011006
983,6010007,6010008,6011008,6011007,7010007,7010008,7011008,7011007
984,6010008,6010009,6011009,6011008,7010008,7010009,7011009,7011008
985,6010009,6010010,6011010,6011009,7010009,7010010,7011010,7011009
986,6010010,6010011,6011011,6011010,7010010,7010011,7011011,7011010
987,6010011,6010012,6011012,6011011,7010011,7010012,7011012,7011011
988,6010012,6010013,6011013,6011012,7010012,7010013,7011013,7011012
989,6010013,6010014,6011014,6011013,7010013,7010014,7011014,7011013
990,6010014,6010015,6011015,6011014,7010014,7010015,7011015,7011014
991,6010015,6010016,6011016,6011015,7010015,7010016,7011016,7011015
992,6010016,6010017,6011017,6011016,7010016,7010017,7011017,7011016
993,6011001,6011002,6012002,6012001,7011001,7011002,7012002,7012001
994,6011002,6011003,6012003,6012002,7011002,7011003,7012003,7012002
995,6011003,6011004,6012004,6012003,7011003,7011004,7012004,7012003
996,6011004,6011005,6012005,6012004,7011004,7011005,7012005,7012004
997,6011005,6011006,6012006,6012005,7011005,7011006,7012006,7012005
998,6011006,6011007,6012007,6012006,7011006,7011007,7012007,7012006
999,6011007,6011008,6012008,6012007,7011007,7011008,7012008,7012007
1000,6011008,6011009,6012009,6012008,7011008,7011009,7012009,7012008
1001,6011009,6011010,6012010,6012009,7011009,7011010,7012010,7012009
1002,6011010,6011011,6012011,6012010,7011010,7011011,7012011,7012010
1003,6011011,6011012,6012012,6012011,7011011,7011012,7012012,7012011
1004,6011012,6011013,6012013,6012012,7011012,7011013,7012013,7012012
1005,6011013,6011014,6012014,6012013,7011013,7011014,7012014,7012013
1006,6011014,6011015,6012015,6012014,7011014,7011015,7012015,7012014
1007,6011015,6011016,6012016,6012015,7011015,7011016,7012016,7012015
1008,6011016,6011017,6012017,6012016,7011016,7011017,7012017,7012016
1009,6012001,6012002,6013002,6013001,7012001,7012002,7013002,7013001
1010,6012002,6012003,6013003,6013002,7012002,7012003,7013003,7013002
1011,6012003,6012004,6013004,6013003,7012003,7012004,7013004,7013003
1012,6012004,6012005,6013005,6013004,7012004,7012005,7013005,7013004
1013,6012005,6012006,6013006,6013005,7012005,7012006,7013006,7013005
1014,6012006,6012007,6013007,6013006,7012006,7012007,7013007,7013006
1015,6012007,6012008,6013008,6013007,7012007,7012008,7013008,7013007
1016,6012008,6012009,6013009,6013008,7012008,7012009,7013009,7013008
1017,6012009,6012010,6013010,6013009,7012009,7012010,7013010,7013009
1018,6012010,6012011,6013011,6013010,7012010,7012011,7013011,7013010
1019,6012011,6012012,6013012,6013011,7012011,7012012,7013012,7013011
1020,6012012,6012013,6013013,6013012,7012012,7012013,7013013,7013012
1021,6012013,6012014,6013014,6013013,7012013,7012014,7013014,7013013
1022,6012014,6012015,6013015,6013014,7012014,7012015,7013015,7013014
1023,6012015,6012016,6013016,6013015,7012015,7012016,7013016,7013015
1024,6012016,6012017,6013017,6013016,7012016,7012017,7013017,7013016
1025,6013001,6013002,6014002,6014001,7013001,7013002,7014002,7014001
1026,6013002,6013003,6014003,6014002,7013002,7013003,7014003,7014002
1027,6013003,6013004,6014004,6014003,7013003,7013004,7014004,7014003
1028,6013004,6013005,6014005,6014004,7013004,7013005,7014005,7014004
1029,6013005,6013006,6014006,6014005,7013005,7013006,7014006,7014005
1030,6013006,6013007,6014007,6014006,7013006,7013007,7014007,7014006
1031,6013007,6013008,6014008,6014007,7013007,7013008,7014008,7014007
1032,6013008,6013009,6014009,6014008,7013008,7013009,7014009,7014008
1033,6013009,6013010,6014010,6014009,7013009,7013010,7014010,7014009
1034,6013010,6013011,6014011,6014010,7013010,7013011,7014011,7014010
1035,6013011,6013012,6014012,6014011,7013011,7013012,7014012,7014011
1036,6013012,6013013,6014013,6014012,7013012,7013013,7014013,7014012
1037,6013013,6013014,6014014,6014013,7013013,7013014,7014014,7014013
1038,6013014,6013015,6014015,6014014,7013014,7013015,7014015,7014014
1039,6013015,6013016,6014016,6014015,7013015,7013016,7014016,7014015
1040,6013016,6013017,6014017,6014016,7013016,7013017,7014017,7014016
1041,6014001,6014002,6015002,6015001,7014001,7014002,7015002,7015001
1042,6014002,6014003,6015003,6015002,7014002,7014003,7015003,7015002
1043,6014003,6014004,6015004,6015003,7014003,7014004,7015004,7015003
1044,6014004,6014005,6015005,6015004,7014004,7014005,7015005,7015004
1045,6014005,6014006,6015006,6015005,7014005,7014006,7015006,7015005
1046,6014006,6014007,6015007,6015006,7014006,7014007,7015007,7015006
1047,6014007,6014008,6015008,6015007,7014007,7014008,7015008,7015007
1048,6014008,6014009,6015009,6015008,7014008,7014009,7015009,7015008
1049,6014009,6014010,6015010,6015009,7014009,7014010,7015010,7015009
1050,6014010,6014011,6015011,6015010,7014010,7014011,7015011,7015010
1051,6014011,6014012,6015012,6015011,7014011,7014012,7015012,7015011
1052,6014012,6014013,6015013,6015012,7014012,7014013,7015013,7015012
1053,6014013,6014014,6015014,6015013,7014013,7014014,7015014,7015013
1054,6014014,6014015,6015015,6015014,7014014,7014015,7015015,7015014
1055,6014015,6014016,6015016,6015015,7014015,7014016,7015016,7015015
1056,6014016,6014017,6015017,6015016,7014016,7014017,7015017,7015016
1057,6015001,6015002,6016002,6016001,7015001,7015002,7016002,7016001
1058,6015002,6015003,6016003,6016002,7015002,7015003,7016003,7016002
1059,6015003,6015004,6016004,6016003,7015003,7015004,7016004,7016003
1060,6015004,6015005,6016005,6016004,7015004,7015005,7016005,7016004
1061,6015005,6015006,6016006,6016005,7015005,7015006,7016006,7016005
1062,6015006,6015007,6016007,6016006,7015006,7015007,7016007,7016006
1063,6015007,6015008,6016008,6016007,7015007,7015008,7016008,7016007
1064,6015008,6015009,6016009,6016008,7015008,7015009,7016009,7016008
1065,6015009,6015010,6016010,6016009,7015009,7015010,7016010,7016009
1066,6015010,6015011,6016011,6016010,7015010,7015011,7016011,7016010
1067,6015011,6015012,6016012,6016011,7015011,7015012,7016012,7016011
1068,6015012,6015013,6016013,6016012,7015012,7015013,7016013,7016012
1069,6015013,6015014,6016014,6016013,7015013,7015014,7016014,7016013
1070,6015014,6015015,6016015,6016014,7015014,7015015,7016015,7016014
1071,6015015,6015016,6016016,6016015,7015015,7015016,7016016,7016015
1072,6015016,6015017,6016017,6016016,7015016,7015017,7016017,7016016
1073,8001007,8001008,8002008,8002007,9001007,9001008,9002008,9002007
1074,8001008,8001009,8002009,8002008,9001008,9001009,9002009,9002008
1075,8001009,8001010,8002010,8002009,9001009,9001010,9002010,9002009
1076,8001010,8001011,8002011,8002010,9001010,9001011,9002011,9002010
1077,8002005,8002006,8003006,8003005,9002005,9002006,9003006,9003005
1078,8002006,8002007,8003007,8003006,9002006,9002007,9003007,9003006
1079,8002007,8002008,8003008,8003007,9002007,9002008,9003008,9003007
1080,8002008,8002009,8003009,8003008,9002008,9002009,9003009,9003008
1081,8002009,8002010,8003010,8003009,9002009,9002010,9003010,9003009
1082,8002010,8002011,8003011,8003010,9002010,9002011,9003011,9003010
1083,8002011,8002012,8003012,8003011,9002011,9002012,9003012,9003011
1084,8002012,8002013,8003013,8003012,9002012,9002013,9003013,9003012
1085,8003004,8003005,8004005,8004004,9003004,9003005,9004005,9004004
1086,8003005,8003006,8004006,8004005,9003005,9003006,9004006,9004005
1087,8003006,8003007,8004007,8004006,9003006,9003007,9004007,9004006
1088,8003007,8003008,8004008,8004007,9003007,9003008,9004008,9004007
1089,8003008,8003009,8004009,8004008,9003008,9003009,9004009,9004008
1090,8003009,8003010,8004010,8004009,9003009,9003010,9004010,9004009
1091,8003010,8003011,8004011,8004010,9003010,9003011,9004011,9004010
1092,8003011,8003012,8004012,8004011,9003011,9003012,9004012,9004011
1093,8003012,8003013,8004013,8004012,9003012,9003013,9004013,9004012
1094,8003013,8003014,8004014,8004013,9003013,9003014,9004014,9004013
1095,8004003,8004004,8005004,8005003,9004003,9004004,9005004,9005003
1096,8004004,8004005,8005005,8005004,9004004,9004005,9005005,9005004
1097,8004005,8004006,8005006,8005005,9004005,9004006,9005006,9005005
1098,8004006,8004007,8005007,8005006,9004006,9004007,9005007,9005006
1099,8004007,8004008,8005008,8005007,9004007,9004008,9005008,9005007
1100,8004008,8004009,8005009,8005008,9004008,9004009,9005009,9005008
1101,8004009,8004010,8005010,8005009,9004009,9004010,9005010,9005009
1102,8004010,8004011,8005011,8005010,9004010,9004011,9005011,9005010
1103,8004011,8004012,8005012,8005011,9004011,9004012,9005012,9005011
1104,8004012,8004013,8005013,8005012,9004012,9004013,9005013,9005012
1105,8004013,8004014,8005014,8005013,9004013,9004014,9005014,9005013
1106,8004014,8004015,8005015,8005014,9004014,9004015,9005015,9005014
1107,8005003,8005004,8006004,8006003,9005003,9005004,9006004,9006003
1108,8005004,8005005,8006005,8006004,9005004,9005005,9006005,9006004
1109,8005005,8005006,8006006,8006005,9005005,9005006,9006006,9006005
1110,8005006,8005007,8006007,8006006,9005006,9005007,9006007,9006006
1111,8005007,8005008,8006008,8006007,9005007,9005008,9006008,9006007
1112,8005008,8005009,8006009,8006008,9005008,9005009,9006009,9006008
1113,8005009,8005010,8006010,8006009,9005009,9005010,9006010,9006009
1114,8005010,8005011,8006011,8006010,9005010,9005011,9006011,9006010
1115,8005011,8005012,8006012,8006011,9005011,9005012,9006012,9006011
1116,8005012,8005013,8006013,8006012,9005012,9005013,9006013,9006012
1117,8005013,8005014,8006014,8006013,9005013,9005014,9006014,9006013
1118,8005014,8005015,8006015,8006014,9005014,9005015,9006015,9006014
1119,8006002,8006003,8007003,8007002,9006002,9006003,9007003,9007002
1120,8006003,8006004,8007004,8007003,9006003,9006004,9007004,9007003
1121,8006004,8006005,8007005,8007004,9006004,9006005,9007005,9007004
1122,8006005,8006006,8007006,8007005,9006005,9006006,9007006,9007005
1123,8006006,8006007,8007007,8007006,9006006,9006007,9007007,9007006
1124,8006011,8006012,8007012,8007011,9006011,9006012,9007012,9007011
1125,8006012,8006013,8007013,8007012,9006012,9006013,9007013,9007012
1126,8006013,8006014,8007014,8007013,9006013,9006014,9007014,9007013
1127,8006014,8006015,8007015,8007014,9006014,9006015,9007015,9007014
1128,8006015,8006016,8007016,8007015,9006015,9006016,9007016,9007015
1129,8007002,8007003,8008003,8008002,9007002,9007003,9008003,9008002
1130,8007003,8007004,8008004,8008003,9007003,9007004,9008004,9008003
1131,8007004,8007005,8008005,8008004,9007004,9007005,9008005,9008004
1132,8007005,8007006,8008006,8008005,9007005,9007006,9008006,9008005
1133,8007006,8007007,8008007,8008006,9007006,9007007,9008007,9008006
1134,8007011,8007012,8008012,8008011,9007011,9007012,9008012,9008011
1135,8007012,8007013,8008013,8008012,9007012,9007013,9008013,9008012
1136,8007013,8007014,8008014,8008013,9007013,9007014,9008014,9008013
1137,8007014,8007015,8008015,8008014,9007014,9007015,9008015,9008014
1138,8007015,8007016,8008016,8008015,9007015,9007016,9008016,9008015
1139,8008002,8008003,8009003,8009002,9008002,9008003,9009003,9009002
1140,8008003,8008004,8009004,8009003,9008003,9008004,9009004,9009003
1141,8008004,8008005,8009005,8009004,9008004,9008005,9009005,9009004
1142,8008005,8008006,8009006,8009005,9008005,9008006,9009006,9009005
1143,8008006,8008007,8009007,8009006,9008006,9008007,9009007,9009006
1144,8008011,8008012,8009012,8009011,9008011,9008012,9009012,9009011
1145,8008012,8008013,8009013,8009012,9008012,9008013,9009013,9009012
1146,8008013,8008014,8009014,8009013,9008013,9008014,9009014,9009013
1147,8008014,8008015,8009015,8009014,9008014,9008015,9009015,9009014
1148,8008015,8008016,8009016,8009015,9008015,9008016,9009016,9009015
1149,8009002,8009003,8010003,8010002,9009002,9009003,9010003,9010002
1150,8009003,8009004,8010004,8010003,9009003,9009004,9010004,9010003
1151,8009004,8009005,8010005,8010004,9009004,9009005,9010005,9010004
1152,8009005,8009006,8010006,8010005,9009005,9009006,9010006,9010005
1153,8009006,8009007,8010007,8010006,9009006,9009007,9010007,9010006
1154,8009011,8009012,8010012,8010011,9009011,9009012,9010012,9010011
1155,8009012,8009013,8010013,8010012,9009012,9009013,9010013,9010012
1156,8009013,8009014,8010014,8010013,9009013,9009014,9010014,9010013
1157,8009014,8009015,8010015,8010014,9009014,9009015,9010015,9010014
1158,8009015,8009016,8010016,8010015,9009015,9009016,9010016,9010015
1159,8010003,8010004,8011004,8011003,9010003,9010004,9011004,9011003
1160,8010004,8010005,8011005,8011004,9010004,9010005,9011005,9011004
1161,8010005,8010006,8011006,8011005,9010005,9010006,9011006,9011005
1162,8010006,8010007,8011007,8011006,9010006,9010007,9011007,9011006
1163,8010007,8010008,8011008,8011007,9010007,9010008,9011008,9011007
1164,8010008,8010009,8011009,8011008,9010008,9010009,9011009,9011008
1165,8010009,8010010,8011010,8011009,9010009,9010010,9011010,9011009
1166,8010010,8010011,8011011,8011010,9010010,9010011,9011011,9011010
1167,8010011,8010012,8011012,8011011,9010011,9010012,9011012,9011011
1168,8010012,8010013,8011013,8011012,9010012,9010013,9011013,9011012
1169,8010013,8010014,8011014,8011013,9010013,9010014,9011014,9011013
1170,8010014,8010015,8011015,8011014,9010014,9010015,9011015,9011014
1171,8011003,8011004,8012004,8012003,9011003,9011004,9012004,9012003
1172,8011004,8011005,8012005,8012004,9011004,9011005,9012005,9012004
1173,8011005,8011006,8012006,8012005,9011005,9011006,9012006,9012005
1174,8011006,8011007,8012007,8012006,9011006,9011007,9012007,9012006
1175,8011007,8011008,8012008,8012007,9011007,9011008,9012008,9012007
1176,8011008,8011009,8012009,8012008,9011008,9011009,9012009,9012008
1177,8011009,8011010,8012010,8012009,9011009,9011010,9012010,9012009
1178,8011010,8011011,8012011,8012010,9011010,9011011,9012011,9012010
1179,8011011,8011012,8012012,8012011,9011011,9011012,9012012,9012011
1180,8011012,8011013,8012013,8012012,9011012,9011013,9012013,9012012
1181,8011013,8011014,8012014,8012013,9011013,9011014,9012014,9012013
1182,8011014,8011015,8012015,8012014,9011014,9011015,9012015,9012014
1183,8012004,8012005,8013005,8013004,9012004,9012005,9013005,9013004
1184,8012005,8012006,8013006,8013005,9012005,9012006,9013006,9013005
1185,8012006,8012007,8013007,8013006,9012006,9012007,9013007,9013006
1186,8012007,8012008,8013008,8013007,9012007,9012008,9013008,9013007
1187,8012008,8012009,8013009,8013008,9012008,9012009,9013009,9013008
1188,8012009,8012010,8013010,8013009,9012009,9012010,9013010,9013009
1189,8012010,8012011,8013011,8013010,9012010,9012011,9013011,9013010
1190,8012011,8012012,8013012,8013011,9012011,9012012,9013012,9013011
1191,8012012,8012013,8013013,8013012,9012012,9012013,9013013,9013012
1192,8012013,8012014,8013014,8013013,9012013,9012014,9013014,9013013
1193,8013005,8013006,8014006,8014005,9013005,9013006,9014006,9014005
1194,8013006,8013007,8014007,8014006,9013006,9013007,9014007,9014006
1195,8013007,8013008,8014008,8014007,9013007,9013008,9014008,9014007
1196,8013008,8013009,8014009,8014008,9013008,9013009,9014009,9014008
1197,8013009,8013010,8014010,8014009,9013009,9013010,9014010,9014009
1198,8013010,8013011,8014011,8014010,9013010,9013011,9014011,9014010
1199,8013011,8013012,8014012,8014011,9013011,9013012,9014012,9014011
1200,8013012,8013013,8014013,8014012,9013012,9013013,9014013,9014012
1201,8014007,8014008,8015008,8015007,9014007,9014008,9015008,9015007
1202,8014008,8014009,8015009,8015008,9014008,9014009,9015009,9015008
1203,8014009,8014010,8015010,8015009,9014009,9014010,9015010,9015009
1204,8014010,8014011,8015011,8015010,9014010,9014011,9015011,9015010
1205,9001007,9001008,9002008,9002007,10001007,10001008,10002008,10002007
1206,9001008,9001009,9002009,9002008,10001008,10001009,10002009,10002008
1207,9001009,9001010,9002010,9002009,10001009,10001010,10002010,10002009
1208,9001010,9001011,9002011,9002010,10001010,10001011,10002011,10002010
1209,9002005,9002006,9003006,9003005,10002005,10002006,10003006,10003005
1210,9002006,9002007,9003007,9003006,10002006,10002007,10003007,10003006
1211,9002007,9002008,9003008,9003007,10002007,10002008,10003008,10003007
1212,9002008,9002009,9003009,9003008,10002008,10002009,10003009,10003008
1213,9002009,9002010,9003010,9003009,10002009,10002010,10003010,10003009
1214,9002010,9002011,9003011,9003010,10002010,10002011,10003011,10003010
1215,9002011,9002012,9003012,9003011,10002011,10002012,10003012,10003011
1216,9002012,9002013,9003013,9003012,10002012,10002013,10003013,10003012
1217,9003004,9003005,9004005,9004004,10003004,10003005,10004005,10004004
1218,9003005,9003006,9004006,9004005,10003005,10003006,10004006,10004005
1219,9003006,9003007,9004007,9004006,10003006,10003007,10004007,10004006
1220,9003007,9003008,9004008,9004007,10003007,10003008,10004008,10004007
1221,9003008,9003009,9004009,9004008,10003008,10003009,10004009,10004008
1222,9003009,9003010,9004010,9004009,10003009,10003010,10004010,10004009
1223,9003010,9003011,9004011,9004010,10003010,10003011,10004011,10004010
1224,9003011,9003012,9004012,9004011,10003011,10003012,10004012,10004011
1225,9003012,9003013,9004013,9004012,10003012,10003013,10004013,10004012
1226,9003013,9003014,9004014,9004013,10003013,10003014,10004014,10004013
1227,9004003,9004004,9005004,9005003,10004003,10004004,10005004,10005003
1228,9004004,9004005,9005005,9005004,10004004,10004005,10005005,10005004
1229,9004005,9004006,9005006,9005005,10004005,10004006,10005006,10005005
1230,9004006,9004007,9005007,9005006,10004006,10004007,10005007,10005006
1231,9004007,9004008,9005008,9005007,10004007,10004008,10005008,10005007
1232,9004008,9004009,9005009,9005008,10004008,10004009,10005009,10005008
1233,9004009,9004010,9005010,9005009,10004009,10004010,10005010,10005009
1234,9004010,9004011,9005011,9005010,10004010,10004011,10005011,10005010
1235,9004011,9004012,9005012,9005011,10004011,10004012,10005012,10005011
1236,9004012,9004013,9005013,9005012,10004012,10004013,10005013,10005012
1237,9004013,9004014,9005014,9005013,10004013,10004014,10005014,10005013
1238,9004014,9004015,9005015,9005014,10004014,10004015,10005015,10005014
1239,9005003,9005004,9006004,9006003,10005003,10005004,10006004,10006003
1240,9005004,9005005,9006005,9006004,10005004,10005005,10006005,10006004
1241,9005005,9005006,9006006,9006005,10005005,10005006,10006006,10006005
1242,9005006,9005007,9006007,9006006,10005006,10005007,10006007,10006006
1243,9005007,9005008,9006008,9006007,10005007,10005008,10006008,10006007
1244,9005008,9005009,9006009,9006008,10005008,10005009,10006009,10006008
1245,9005009,9005010,9006010,9006009,10005009,10005010,10006010,10006009
1246,9005010,9005011,9006011,9006010,10005010,10005011,10006011,10006010
1247,9005011,9005012,9006012,9006011,10005011,10005012,10006012,10006011
1248,9005012,9005013,9006013,9006012,10005012,10005013,10006013,10006012
1249,9005013,9005014,9006014,9006013,10005013,10005014,10006014,10006013
1250,9005014,9005015,9006015,9006014,10005014,10005015,10006015,10006014
1251,9006002,9006003,9007003,9007002,10006002,10006003,10007003,10007002
1252,9006003,9006004,9007004,9007003,10006003,10006004,10007004,10007003
1253,9006004,9006005,9007005,9007004,10006004,10006005,10007005,10007004
1254,9006005,9006006,9007006,9007005,10006005,10006006,10007006,10007005
1255,9006006,9006007,9007007,9007006,10006006,10006007,10007007,10007006
1256,9006011,9006012,9007012,9007011,10006011,10006012,10007012,10007011
1257,9006012,9006013,9007013,9007012,10006012,10006013,10007013,10007012
1258,9006013,9006014,9007014,9007013,10006013,10006014,10007014,10007013
1259,9006014,9006015,9007015,9007014,10006014,10006015,10007015,10007014
1260,9006015,9006016,9007016,9007015,10006015,10006016,10007016,10007015
1261,9007002,9007003,9008003,9008002,10007002,10007003,10008003,10008002
1262,9007003,9007004,9008004,9008003,10007003,10007004,10008004,10008003
1263,9007004,9007005,9008005,9008004,10007004,10007005,10008005,10008004
1264,9007005,9007006,9008006,9008005,10007005,10007006,10008006,10008005
1265,9007006,9007007,9008007,9008006,10007006,10007007,10008007,10008006
1266,9007011,9007012,9008012,9008011,10007011,10007012,10008012,10008011
1267,9007012,9007013,9008013,9008012,10007012,10007013,10008013,10008012
1268,9007013,9007014,9008014,9008013,10007013,10007014,10008014,10008013
1269,9007014,9007015,9008015,9008014,10007014,10007015,10008015,10008014
1270,9007015,9007016,9008016,9008015,10007015,10007016,10008016,10008015
1271,9008002,9008003,9009003,9009002,10008002,10008003,10009003,10009002
1272,9008003,9008004,9009004,9009003,10008003,10008004,10009004,10009003
1273,9008004,9008005,9009005,9009004,10008004,10008005,10009005,10009004
1274,9008005,9008006,9009006,9009005,10008005,10008006,10009006,10009005
1275,9008006,9008007,9009007,9009006,10008006,10008007,10009007,10009006
1276,9008011,9008012,9009012,9009011,10008011,10008012,10009012,10009011
1277,9008012,9008013,9009013,9009012,10008012,10008013,10009013,10009012
1278,9008013,9008014,9009014,9009013,10008013,10008014,10009014,10009013
1279,9008014,9008015,9009015,9009014,10008014,10008015,10009015,10009014
1280,9008015,9008016,9009016,9009015,10008015,10008016,10009016,10009015
1281,9009002,9009003,9010003,9010002,10009002,10009003,10010003,10010002
1282,9009003,9009004,9010004,9010003,10009003,10009004,10010004,10010003
1283,9009004,9009005,9010005,9010004,10009004,10009005,10010005,10010004
1284,9009005,9009006,9010006,9010005,10009005,10009006,10010006,10010005
1285,9009006,9009007,9010007,9010006,10009006,10009007,10010007,10010006
1286,9009011,9009012,9010012,9010011,10009011,10009012,10010012,10010011
1287,9009012,9009013,9010013,9010012,10009012,10009013,10010013,10010012
1288,9009013,9009014,9010014,9010013,10009013,10009014,10010014,10010013
1289,9009014,9009015,9010015,9010014,10009014,10009015,10010015,10010014
1290,9009015,9009016,9010016,9010015,10009015,10009016,10010016,10010015
1291,9010003,9010004,9011004,9011003,10010003,10010004,10011004,10011003
1292,9010004,9010005,9011005,9011004,10010004,10010005,10011005,10011004
1293,9010005,9010006,9011006,9011005,10010005,10010006,10011006,10011005
1294,9010006,9010007,9011007,9011006,10010006,10010007,10011007,10011006
1295,9010007,9010008,9011008,9011007,10010007,10010008,10011008,10011007
1296,9010008,9010009,9011009,9011008,10010008,10010009,10011009,10011008
1297,9010009,9010010,9011010,9011009,10010009,10010010,10011010,10011009
1298,9010010,9010011,9011011,9011010,10010010,10010011,10011011,10011010
1299,9010011,9010012,9011012,9011011,10010011,10010012,10011012,10011011
1300,9010012,9010013,9011013,9011012,10010012,10010013,10011013,10011012
1301,9010013,9010014,9011014,9011013,10010013,10010014,10011014,10011013
1302,9010014,9010015,9011015,9011014,10010014,10010015,10011015,10011014
1303,9011003,9011004,9012004,9012003,10011003,10011004,10012004,10012003
1304,9011004,9011005,9012005,9012004,10011004,10011005,10012005,10012004
1305,9011005,9011006,9012006,9012005,10011005,10011006,10012006,10012005
1306,9011006,9011007,9012007,9012006,10011006,10011007,10012007,10012006
1307,9011007,9011008,9012008,9012007,10011007,10011008,10012008,10012007
1308,9011008,9011009,9012009,9012008,10011008,10011009,10012009,10012008
1309,9011009,9011010,9012010,9012009,10011009,10011010,10012010,10012009
1310,9011010,9011011,9012011,9012010,10011010,10011011,10012011,10012010
1311,9011011,9011012,9012012,9012011,10011011,10011012,10012012,10012011
1312,9011012,9011013,9012013,9012012,10011012,10011013,10012013,10012012
1313,9011013,9011014,9012014,9012013,10011013,10011014,10012014,10012013
1314,9011014,9011015,9012015,9012014,10011014,10011015,10012015,10012014
1315,9012004,9012005,9013005,9013004,10012004,10012005,10013005,10013004
1316,9012005,9012006,9013006,9013005,10012005,10012006,10013006,10013005
1317,9012006,9012007,9013007,9013006,10012006,10012007,10013007,10013006
1318,9012007,9012008,9013008,9013007,10012007,10012008,10013008,10013007
1319,9012008,9012009,9013009,9013008,10012008,10012009,10013009,10013008
1320,9012009,9012010,9013010,9013009,10012009,10012010,10013010,10013009
1321,9012010,9012011,9013011,9013010,10012010,10012011,10013011,10013010
1322,9012011,9012012,9013012,9013011,10012011,10012012,10013012,10013011
1323,9012012,9012013,9013013,9013012,10012012,10012013,10013013,10013012
1324,9012013,9012014,9013014,9013013,10012013,10012014,10013014,10013013
1325,9013005,9013006,9014006,9014005,10013005,10013006,10014006,10014005
1326,9013006,9013007,9014007,9014006,10013006,10013007,10014007,10014006
1327,9013007,9013008,9014008,9014007,10013007,10013008,10014008,10014007
1328,9013008,9013009,9014009,9014008,10013008,10013009,10014009,10014008
1329,9013009,9013010,9014010,9014009,10013009,10013010,10014010,10014009
1330,9013010,9013011,9014011,9014010,10013010,10013011,10014011,10014010
1331,9013011,9013012,9014012,9014011,10013011,10013012,10014012,10014011
1332,9013012,9013013,9014013,9014012,10013012,10013013,10014013,10014012
1333,9014007,9014008,9015008,9015007,10014007,10014008,10015008,10015007
1334,9014008,9014009,9015009,9015008,10014008,10014009,10015009,10015008
1335,9014009,9014010,9015010,9015009,10014009,10014010,10015010,10015009
1336,9014010,9014011,9015011,9015010,10014010,10014011,10015011,10015010
*ELSET,ELSET=EBRIDGE
1,2,3,4,5,6,7,8,9,10,11,12,13,14,15,16
17,18,19,20,21,22,23,24,25,26,27,28,29,30,31,32
33,34,35,36,37,38,39,40,41,42,43,44,45,46,47,48
49,50,51,52,53,54,55,56,57,58,59,60,61,62,63,64
65,66,67,68,69,70,71,72,73,74,75,76,77,78,79,80
81,82,83,84,85,86,87,88,89,90,91,92,93,94,95,96
97,98,99,100,101,102,103,104,105,106,107,108,109,110,111,112
113,114,115,116,117,118,119,120,121,122,123,124,125,126,127,128
129,130,131,132,133,134,135,136,137,138,139,140,141,142,143,144
145,146,147,148,149,150,151,152,153,154,155,156,157,158,159,160
161,162,163,164,165,166,167,168,169,170,171,172,173,174,175,176
177,178,179,180,181,182,183,184,185,186,187,188,189,190,191,192
193,194,195,196,197,198,199,200,201,202,203,204,205,206,207,208
209,210,211,212,213,214,215,216,217,218,219,220,221,222,223,224
225,226,227,228,229,230,231,232,233,234,235,236,237,238,239,240
241,242,243,244,245,246,247,248,249,250,251,252,253,254,255,256
257,258,259,260,261,262,263,264,265,266,267,268,269,270,271,272
273,274,275,276,277,278,279,280,281,282,283,284,285,286,287,288
289,290,291,292,293,294,295,296,297,298,299,300,301,302,303,304
305,306,307,308,309,310,311,312,313,314,315,316,317,318,319,320
321,322,323,324,325,326,327,328,329,330,331,332,333,334,335,336
337,338,339,340,341,342,343,344,345,346,347,348,349,350,351,352
353,354,355,356,357,358,359,360,361,362,363,364,365,366,367,368
369,370,371,372,373,374,375,376,377,378,379,380,381,382,383,384
385,386,387,388,389,390,391,392,393,394,395,396,397,398,399,400
401,402,403,404,405,406,407,408,409,410,411,412,413,414,415,416
417,418,419,420,421,422,423,424,425,426,427,428,429,430,431,432
433,434,435,436,437,438,439,440,441,442,443,444,445,446,447,448
449,450,451,452,453,454,455,456,457,458,459,460,461,462,463,464
465,466,467,468,469,470,471,472,473,474,475,476,477,478,479,480
*ELSET,ELSET=ESTAGEB
481,482,483,484,485,486,487,488,489,490,491,492,493,494,495,496
497,498,499,500,501,502,503,504,505,506,507,508,509,510,511,512
513,514,515,516,517,518,519,520,521,522,523,524,525,526,527,528
529,530,531,532,533,534,535,536,537,538,539,540,541,542,543,544
545,546,547,548,549,550,551,552,553,554,555,556,557,558,559,560
561,562,563,564,565,566,567,568,569,570,571,572,573,574,575,576
577,578,579,580,581,582,583,584,585,586,587,588,589,590,591,592
593,594,595,596,597,598,599,600,601,602,603,604,605,606,607,608
609,610,611,612,613,614,615,616,617,618,619,620,621,622,623,624
625,626,627,628,629,630,631,632,633,634,635,636,637,638,639,640
641,642,643,644,645,646,647,648,649,650,651,652,653,654,655,656
657,658,659,660,661,662,663,664,665,666,667,668,669,670,671,672
673,674,675,676,677,678,679,680,681,682,683,684,685,686,687,688
689,690,691,692,693,694,695,696,697,698,699,700,701,702,703,704
705,706,707,708,709,710,711,712,713,714,715,716,717,718,719,720
721,722,723,724,725,726,727,728,729,730,731,732,733,734,735,736
737,738,739,740,741,742,743,744,745,746,747,748,749,750,751,752
753,754,755,756,757,758,759,760,761,762,763,764,765,766,767,768
769,770,771,772,773,774,775,776,777,778,779,780,781,782,783,784
785,786,787,788,789,790,791,792,793,794,795,796,797,798,799,800
801,802,803,804,805,806,807,808,809,810,811,812,813,814,815,816
817,818,819,820,821,822,823,824,825,826,827,828,829,830,831,832
833,834,835,836,837,838,839,840,841,842,843,844,845,846,847,848
849,850,851,852,853,854,855,856,857,858,859,860,861,862,863,864
865,866,867,868,869,870,871,872,873,874,875,876,877,878,879,880
881,882,883,884,885,886,887,888,889,890,891,892,893,894,895,896
897,898,899,900,901,902,903,904,905,906,907,908,909,910,911,912
913,914,915,916,917,918,919,920,921,922,923,924,925,926,927,928
929,930,931,932,933,934,935,936,937,938,939,940,941,942,943,944
945,946,947,948,949,950,951,952,953,954,955,956,957,958,959,960
961,962,963,964,965,966,967,968,969,970,971,972,973,974,975,976
977,978,979,980,981,982,983,984,985,986,987,988,989,990,991,992
993,994,995,996,997,998,999,1000,1001,1002,1003,1004,1005,1006,1007,1008
1009,1010,1011,1012,1013,1014,1015,1016,1017,1018,1019,1020,1021,1022,1023,1024
1025,1026,1027,1028,1029,1030,1031,1032,1033,1034,1035,1036,1037,1038,1039,1040
1041,1042,1043,1044,1045,1046,1047,1048,1049,1050,1051,1052,1053,1054,1055,1056
1057,1058,1059,1060,1061,1062,1063,1064,1065,1066,1067,1068,1069,1070,1071,1072
*ELSET,ELSET=ESTAGEA
1073,1074,1075,1076,1077,1078,1079,1080,1081,1082,1083,1084,1085,1086,1087,1088
1089,1090,1091,1092,1093,1094,1095,1096,1097,1098,1099,1100,1101,1102,1103,1104
1105,1106,1107,1108,1109,1110,1111,1112,1113,1114,1115,1116,1117,1118,1119,1120
1121,1122,1123,1124,1125,1126,1127,1128,1129,1130,1131,1132,1133,1134,1135,1136
1137,1138,1139,1140,1141,1142,1143,1144,1145,1146,1147,1148,1149,1150,1151,1152
1153,1154,1155,1156,1157,1158,1159,1160,1161,1162,1163,1164,1165,1166,1167,1168
1169,1170,1171,1172,1173,1174,1175,1176,1177,1178,1179,1180,1181,1182,1183,1184
1185,1186,1187,1188,1189,1190,1191,1192,1193,1194,1195,1196,1197,1198,1199,1200
1201,1202,1203,1204,1205,1206,1207,1208,1209,1210,1211,1212,1213,1214,1215,1216
1217,1218,1219,1220,1221,1222,1223,1224,1225,1226,1227,1228,1229,1230,1231,1232
1233,1234,1235,1236,1237,1238,1239,1240,1241,1242,1243,1244,1245,1246,1247,1248
1249,1250,1251,1252,1253,1254,1255,1256,1257,1258,1259,1260,1261,1262,1263,1264
1265,1266,1267,1268,1269,1270,1271,1272,1273,1274,1275,1276,1277,1278,1279,1280
1281,1282,1283,1284,1285,1286,1287,1288,1289,1290,1291,1292,1293,1294,1295,1296
1297,1298,1299,1300,1301,1302,1303,1304,1305,1306,1307,1308,1309,1310,1311,1312
1313,1314,1315,1316,1317,1318,1319,1320,1321,1322,1323,1324,1325,1326,1327,1328
1329,1330,1331,1332,1333,1334,1335,1336
*ELSET,ELSET=EPROBES
463,1004,1321,115
*NSET,NSET=NFIXED
1000001,1000002,1000003,1000004,1000005,1000006,1000007,1000008,1000009,1000010,1000011,1000012,1000013,1000014,1000015,1000016
1000017,1001001,1001002,1001003,1001004,1001005,1001006,1001007,1001008,1001009,1001010,1001011,1001012,1001013,1001014,1001015
1001016,1001017,1002001,1002002,1002003,1002004,1002005,1002006,1002007,1002008,1002009,1002010,1002011,1002012,1002013,1002014
1002015,1002016,1002017,1003001,1003002,1003003,1003004,1003005,1003006,1003007,1003008,1003009,1003010,1003011,1003012,1003013
1003014,1003015,1003016,1003017,1004001,1004002,1004003,1004004,1004005,1004006,1004007,1004008,1004009,1004010,1004011,1004012
1004013,1004014,1004015,1004016,1004017,1005001,1005002,1005003,1005004,1005005,1005006,1005007,1005008,1005009,1005010,1005011
1005012,1005013,1005014,1005015,1005016,1005017,1006001,1006002,1006003,1006004,1006005,1006006,1006007,1006008,1006009,1006010
1006011,1006012,1006013,1006014,1006015,1006016,1006017,1007001,1007002,1007003,1007004,1007005,1007006,1007007,1007011,1007012
1007013,1007014,1007015,1007016,1007017,1008001,1008002,1008003,1008004,1008005,1008006,1008007,1008011,1008012,1008013,1008014
1008015,1008016,1008017,1009001,1009002,1009003,1009004,1009005,1009006,1009007,1009011,1009012,1009013,1009014,1009015,1009016
1009017,1010001,1010002,1010003,1010004,1010005,1010006,1010007,1010008,1010009,1010010,1010011,1010012,1010013,1010014,1010015
1010016,1010017,1011001,1011002,1011003,1011004,1011005,1011006,1011007,1011008,1011009,1011010,1011011,1011012,1011013,1011014
1011015,1011016,1011017,1012001,1012002,1012003,1012004,1012005,1012006,1012007,1012008,1012009,1012010,1012011,1012012,1012013
1012014,1012015,1012016,1012017,1013001,1013002,1013003,1013004,1013005,1013006,1013007,1013008,1013009,1013010,1013011,1013012
1013013,1013014,1013015,1013016,1013017,1014001,1014002,1014003,1014004,1014005,1014006,1014007,1014008,1014009,1014010,1014011
1014012,1014013,1014014,1014015,1014016,1014017,1015001,1015002,1015003,1015004,1015005,1015006,1015007,1015008,1015009,1015010
1015011,1015012,1015013,1015014,1015015,1015016,1015017,1016001,1016002,1016003,1016004,1016005,1016006,1016007,1016008,1016009
1016010,1016011,1016012,1016013,1016014,1016015,1016016,1016017
*NSET,NSET=NRP
99000000
*NSET,NSET=NS_ARM_SPIDER
10003007,10003008,10004007,10004008,10006013,10006014,10007013,10007014,10009004,10009005,10010004,10010005,10012010,10012011,10013010,10013011
*NSET,NSET=NS_M5_1
7010014,7010015,7011014,7011015,8010014,8010015,8011014,8011015
*NSET,NSET=NS_M5_2
7013011,7013012,7014011,7014012,8013011,8013012,8014011,8014012
*NSET,NSET=NS_M5_3
7013006,7013007,7014006,7014007,8013006,8013007,8014006,8014007
*NSET,NSET=NS_M5_4
7010003,7010004,7011003,7011004,8010003,8010004,8011003,8011004
*NSET,NSET=NS_M5_5
7005003,7005004,7006003,7006004,8005003,8005004,8006003,8006004
*NSET,NSET=NS_M5_6
7002006,7002007,7003006,7003007,8002006,8002007,8003006,8003007
*NSET,NSET=NS_M5_7
7002011,7002012,7003011,7003012,8002011,8002012,8003011,8003012
*NSET,NSET=NS_M5_8
7005014,7005015,7006014,7006015,8005014,8005015,8006014,8006015
*NSET,NSET=NS_M6_1
3014016,3015015,3015016,3015017,3016016,4014016,4015015,4015016,4015017,4016016
*NSET,NSET=NS_M6_2
3000016,3001015,3001016,3001017,3002016,4000016,4001015,4001016,4001017,4002016
*NSET,NSET=NS_M6_3
3014002,3015001,3015002,3015003,3016002,4014002,4015001,4015002,4015003,4016002
*NSET,NSET=NS_M6_4
3000002,3001001,3001002,3001003,3002002,4000002,4001001,4001002,4001003,4002002
*MATERIAL,NAME=AL6061_T6_CAND
*ELASTIC
68300.0,0.33
*DENSITY
2.700e-09
*SOLID SECTION,ELSET=EBRIDGE,MATERIAL=AL6061_T6_CAND
*SOLID SECTION,ELSET=ESTAGEB,MATERIAL=AL6061_T6_CAND
*SOLID SECTION,ELSET=ESTAGEA,MATERIAL=AL6061_T6_CAND
*BOUNDARY
NFIXED,ENCASTRE
** joint couplings (bolt-disk rigid zones) -- identical to solved FEA-1
*SURFACE,TYPE=NODE,NAME=S_NS_ARM_SPIDER
NS_ARM_SPIDER,
*SURFACE,TYPE=NODE,NAME=S_NS_M5_1
NS_M5_1,
*SURFACE,TYPE=NODE,NAME=S_NS_M5_2
NS_M5_2,
*SURFACE,TYPE=NODE,NAME=S_NS_M5_3
NS_M5_3,
*SURFACE,TYPE=NODE,NAME=S_NS_M5_4
NS_M5_4,
*SURFACE,TYPE=NODE,NAME=S_NS_M5_5
NS_M5_5,
*SURFACE,TYPE=NODE,NAME=S_NS_M5_6
NS_M5_6,
*SURFACE,TYPE=NODE,NAME=S_NS_M5_7
NS_M5_7,
*SURFACE,TYPE=NODE,NAME=S_NS_M5_8
NS_M5_8,
*SURFACE,TYPE=NODE,NAME=S_NS_M6_1
NS_M6_1,
*SURFACE,TYPE=NODE,NAME=S_NS_M6_2
NS_M6_2,
*SURFACE,TYPE=NODE,NAME=S_NS_M6_3
NS_M6_3,
*SURFACE,TYPE=NODE,NAME=S_NS_M6_4
NS_M6_4,
*COUPLING,CONSTRAINT NAME=M6_1,REF NODE=99000100,SURFACE=S_NS_M6_1
*KINEMATIC
1,6
*COUPLING,CONSTRAINT NAME=M6_2,REF NODE=99000101,SURFACE=S_NS_M6_2
*KINEMATIC
1,6
*COUPLING,CONSTRAINT NAME=M6_3,REF NODE=99000102,SURFACE=S_NS_M6_3
*KINEMATIC
1,6
*COUPLING,CONSTRAINT NAME=M6_4,REF NODE=99000103,SURFACE=S_NS_M6_4
*KINEMATIC
1,6
*COUPLING,CONSTRAINT NAME=M5_1,REF NODE=99000200,SURFACE=S_NS_M5_1
*KINEMATIC
1,6
*COUPLING,CONSTRAINT NAME=M5_2,REF NODE=99000201,SURFACE=S_NS_M5_2
*KINEMATIC
1,6
*COUPLING,CONSTRAINT NAME=M5_3,REF NODE=99000202,SURFACE=S_NS_M5_3
*KINEMATIC
1,6
*COUPLING,CONSTRAINT NAME=M5_4,REF NODE=99000203,SURFACE=S_NS_M5_4
*KINEMATIC
1,6
*COUPLING,CONSTRAINT NAME=M5_5,REF NODE=99000204,SURFACE=S_NS_M5_5
*KINEMATIC
1,6
*COUPLING,CONSTRAINT NAME=M5_6,REF NODE=99000205,SURFACE=S_NS_M5_6
*KINEMATIC
1,6
*COUPLING,CONSTRAINT NAME=M5_7,REF NODE=99000206,SURFACE=S_NS_M5_7
*KINEMATIC
1,6
*COUPLING,CONSTRAINT NAME=M5_8,REF NODE=99000207,SURFACE=S_NS_M5_8
*KINEMATIC
1,6
*COUPLING,CONSTRAINT NAME=ARM_SPIDER,REF NODE=99000000,SURFACE=S_NS_ARM_SPIDER
*KINEMATIC
1,6
*STEP,NAME=QS_STEP,NLGEOM=NO
*STATIC
1.0,1.0
*CLOAD
99000000,2,0.31050820236037147
99000000,6,217.35574165226001
*NODE PRINT,NSET=NFIXED
RF
*NODE PRINT,NSET=NRP
U
*EL PRINT,ELSET=EPROBES
S
*ENERGY PRINT
*OUTPUT,FIELD,VARIABLE=PRESELECT
*OUTPUT,HISTORY
*ENERGY OUTPUT
*END STEP
