** F3-P5A Modal Analysis - Bare Support Structure
** Units: mm, N, MPa
**
*HEADING
F3-P5A Modal Analysis - Bare Support Structure
**
*NODE
1, 0.0, 0.0, 0.0
2, 0.0, 0.0, 100.0
3, 0.0, 0.0, 200.0
4, 0.0, 0.0, 300.0
5, 0.0, 0.0, 400.0
6, 0.0, 0.0, 500.0
7, 0.0, 0.0, 600.0
8, 0.0, 0.0, 700.0
9, 0.0, 0.0, 800.0
10, 0.0, 0.0, 900.0
11, 0.0, 0.0, 1000.0
100, 1.0, 0.0, 0.0
*ELEMENT, TYPE=B31
1, 1, 2
2, 2, 3
3, 3, 4
4, 4, 5
5, 5, 6
6, 6, 7
7, 7, 8
8, 8, 9
9, 9, 10
10, 10, 11
*ELEMENT, TYPE=SPRING1
11, 5
12, 9
*BOUNDARY
1, 1, 3, 0.0
*SPRING, ELSET=G07_SPRING
11
10.0, 3
*SPRING, ELSET=G08_SPRING
12
5.0, 3
*MATERIAL, NAME=AL7075
*ELASTIC
71700.0, 0.33
*DENSITY
2.81E-9
*BEAM SECTION, ELSET=BEAM_SET, MATERIAL=AL7075, SECTION=RECT
17.0, 17.0
100
*ELSET, ELSET=BEAM_SET
1, 2, 3, 4, 5, 6, 7, 8, 9, 10
*ELSET, ELSET=G07_SPRING
11
*ELSET, ELSET=G08_SPRING
12
*STEP
*FREQUENCY
20
*NODE FILE
U
*END STEP
