*HEADING
M7 solver license/memory probe - cantilever beam
*NODE
1,0.,0.,0.
2,10.,0.,0.
3,20.,0.,0.
4,0.,10.,0.
5,10.,10.,0.
6,20.,10.,0.
7,0.,0.,10.
8,10.,0.,10.
9,20.,0.,10.
10,0.,10.,10.
11,10.,10.,10.
12,20.,10.,10.
*ELEMENT,TYPE=C3D8R,ELSET=EALL
1,1,2,5,4,7,8,11,10
2,2,3,6,5,8,9,12,11
*SOLID SECTION,ELSET=EALL,MATERIAL=AL
*MATERIAL,NAME=AL
*ELASTIC
68300.,0.33
*BOUNDARY
1,1,6
4,1,6
7,1,6
10,1,6
*STEP
*STATIC
*CLOAD
3,2,-100.
6,2,-100.
9,2,-100.
12,2,-100.
*EL PRINT,ELSET=EALL
S
*NODE PRINT
U
RF
*END STEP
