*HEADING
FEA1_M3R_INTERFACE  case=CAPTURE_150KG_QS  mesh=FINE  material=AL7075_T651_CAND
M7 WP7 FEA_OPERATIONAL -- operational on-orbit quasi-static screen.
Units: N, mm, MPa, tonne. Linear static. DESIGN_INDICATIVE results only.
** ASSUMPTION: LINEAR_STATIC_SMALL_DISPLACEMENT (NLGEOM off; loads are milli-g level)
** ASSUMPTION: BUS_SIDE_ENCASTRE_ASSUMPTION: BC-BUS-001 bus stiffness authority is HOLD; z=0 face fully clamped = stiff-boundary design bound
** ASSUMPTION: BOLT_DISK_KINEMATIC_COUPLING_ASSUMPTION: M6/M5/M4 joints modelled as rigid coupling disks (r_b=12/10/10 mm, auto-grow to >=1 node/face, recorded); no preload, no friction, no slip
** ASSUMPTION: ARM_BASE_RIGID_SPIDER_ASSUMPTION: B601 base flange stiffness >> 8 mm ring; single RP spider onto 4 as-built M4 disks; sensitivity covered by the 3-level mesh convergence series (CDR rigid_spider rule)
** ASSUMPTION: NO_CONTACT_NO_PRELOAD_NO_FRICTION: CDR joint mechanics HOLD; faces outside bolt disks untied (separation/interpenetration possible; Level-1 bound)
** ASSUMPTION: STAGE_B_IDEALIZED_ANNULAR_PLATE: pocket/recess not resolved; bore dia100 through bottom 2 layers; centre web r<50 modelled 4.0 mm (real 5.595)
** ASSUMPTION: STAGE_A_IDEALIZED_UNIFORM_RING: OD150/ID40 x 8.0 uniform; spigot, recess, counterbores not resolved
** ASSUMPTION: BRIDGE_CORNER_RADIUS_OMITTED: R4 corners modelled square; all boundaries stepped at element corners
** ASSUMPTION: SMALL_HOLES_NOT_CUT: dia6.6/5.5/4.6 holes represented by coupling disks, not voids (locally stiffer); hole-edge peak stress NOT qualified here
** ASSUMPTION: POISSON_ASSUMPTION: nu=0.33 for both Al candidates (not in M6 library)
** ASSUMPTION: MATERIALS_CANDIDATE: 6061-T6 / 7075-T651 elastic constants from M6 WP4 library, classification PROTOTYPE_CANDIDATE; margins DESIGN_INDICATIVE only
** ASSUMPTION: DYNAMIC_FACTOR_ASSUMPTION: quasi-static equivalence F_eq=DAF*J/dt, DAF=2.0, dt=0.1 s; both declared assumptions, research-bound
** ASSUMPTION: LOAD_DIRECTION_ASSUMPTION: transverse +y force plus bending moment about +z; worst-axis alignment declared (near-axisymmetric stack)
** ASSUMPTION: MEMORY_GATE_MESH_ADAPTATION: seeds 16/10/8 mm replace draft 4/2/1 mm; <=4000 C3D8R; 6.7 mm ligament NOT resolved with 3 elements; convergence assessed on global maxima trend only
** ASSUMPTION: ARM_LOADS_BOUNDED_BY_ASSUMPTION: quintic peak accel from LC-010 trajectory x r_eff=0.7 m; e-stop = 2x maneuver; arm inertia tensor not reduced (arm cases shown to be non-governing)
** Case load: F_y=13.5527 N, M_z=19073.3 N*mm (F=DAF*J/dt; M=F*L_grasp+DAF*C/dt (envelope row CAP150_030))
**
*NODE
1,-80.000000,-80.000000,0.000000
2,-72.000000,-80.000000,0.000000
3,-64.000000,-80.000000,0.000000
4,-56.000000,-80.000000,0.000000
5,-48.000000,-80.000000,0.000000
6,-40.000000,-80.000000,0.000000
7,-32.000000,-80.000000,0.000000
8,-24.000000,-80.000000,0.000000
9,-16.000000,-80.000000,0.000000
10,-8.000000,-80.000000,0.000000
11,0.000000,-80.000000,0.000000
12,8.000000,-80.000000,0.000000
13,16.000000,-80.000000,0.000000
14,24.000000,-80.000000,0.000000
15,32.000000,-80.000000,0.000000
16,40.000000,-80.000000,0.000000
17,48.000000,-80.000000,0.000000
18,56.000000,-80.000000,0.000000
19,64.000000,-80.000000,0.000000
20,72.000000,-80.000000,0.000000
21,80.000000,-80.000000,0.000000
1001,-80.000000,-72.000000,0.000000
1002,-72.000000,-72.000000,0.000000
1003,-64.000000,-72.000000,0.000000
1004,-56.000000,-72.000000,0.000000
1005,-48.000000,-72.000000,0.000000
1006,-40.000000,-72.000000,0.000000
1007,-32.000000,-72.000000,0.000000
1008,-24.000000,-72.000000,0.000000
1009,-16.000000,-72.000000,0.000000
1010,-8.000000,-72.000000,0.000000
1011,0.000000,-72.000000,0.000000
1012,8.000000,-72.000000,0.000000
1013,16.000000,-72.000000,0.000000
1014,24.000000,-72.000000,0.000000
1015,32.000000,-72.000000,0.000000
1016,40.000000,-72.000000,0.000000
1017,48.000000,-72.000000,0.000000
1018,56.000000,-72.000000,0.000000
1019,64.000000,-72.000000,0.000000
1020,72.000000,-72.000000,0.000000
1021,80.000000,-72.000000,0.000000
2001,-80.000000,-64.000000,0.000000
2002,-72.000000,-64.000000,0.000000
2003,-64.000000,-64.000000,0.000000
2004,-56.000000,-64.000000,0.000000
2005,-48.000000,-64.000000,0.000000
2006,-40.000000,-64.000000,0.000000
2007,-32.000000,-64.000000,0.000000
2008,-24.000000,-64.000000,0.000000
2009,-16.000000,-64.000000,0.000000
2010,-8.000000,-64.000000,0.000000
2011,0.000000,-64.000000,0.000000
2012,8.000000,-64.000000,0.000000
2013,16.000000,-64.000000,0.000000
2014,24.000000,-64.000000,0.000000
2015,32.000000,-64.000000,0.000000
2016,40.000000,-64.000000,0.000000
2017,48.000000,-64.000000,0.000000
2018,56.000000,-64.000000,0.000000
2019,64.000000,-64.000000,0.000000
2020,72.000000,-64.000000,0.000000
2021,80.000000,-64.000000,0.000000
3001,-80.000000,-56.000000,0.000000
3002,-72.000000,-56.000000,0.000000
3003,-64.000000,-56.000000,0.000000
3004,-56.000000,-56.000000,0.000000
3005,-48.000000,-56.000000,0.000000
3006,-40.000000,-56.000000,0.000000
3007,-32.000000,-56.000000,0.000000
3008,-24.000000,-56.000000,0.000000
3009,-16.000000,-56.000000,0.000000
3010,-8.000000,-56.000000,0.000000
3011,0.000000,-56.000000,0.000000
3012,8.000000,-56.000000,0.000000
3013,16.000000,-56.000000,0.000000
3014,24.000000,-56.000000,0.000000
3015,32.000000,-56.000000,0.000000
3016,40.000000,-56.000000,0.000000
3017,48.000000,-56.000000,0.000000
3018,56.000000,-56.000000,0.000000
3019,64.000000,-56.000000,0.000000
3020,72.000000,-56.000000,0.000000
3021,80.000000,-56.000000,0.000000
4001,-80.000000,-48.000000,0.000000
4002,-72.000000,-48.000000,0.000000
4003,-64.000000,-48.000000,0.000000
4004,-56.000000,-48.000000,0.000000
4005,-48.000000,-48.000000,0.000000
4006,-40.000000,-48.000000,0.000000
4007,-32.000000,-48.000000,0.000000
4008,-24.000000,-48.000000,0.000000
4009,-16.000000,-48.000000,0.000000
4010,-8.000000,-48.000000,0.000000
4011,0.000000,-48.000000,0.000000
4012,8.000000,-48.000000,0.000000
4013,16.000000,-48.000000,0.000000
4014,24.000000,-48.000000,0.000000
4015,32.000000,-48.000000,0.000000
4016,40.000000,-48.000000,0.000000
4017,48.000000,-48.000000,0.000000
4018,56.000000,-48.000000,0.000000
4019,64.000000,-48.000000,0.000000
4020,72.000000,-48.000000,0.000000
4021,80.000000,-48.000000,0.000000
5001,-80.000000,-40.000000,0.000000
5002,-72.000000,-40.000000,0.000000
5003,-64.000000,-40.000000,0.000000
5004,-56.000000,-40.000000,0.000000
5005,-48.000000,-40.000000,0.000000
5006,-40.000000,-40.000000,0.000000
5007,-32.000000,-40.000000,0.000000
5008,-24.000000,-40.000000,0.000000
5009,-16.000000,-40.000000,0.000000
5010,-8.000000,-40.000000,0.000000
5011,0.000000,-40.000000,0.000000
5012,8.000000,-40.000000,0.000000
5013,16.000000,-40.000000,0.000000
5014,24.000000,-40.000000,0.000000
5015,32.000000,-40.000000,0.000000
5016,40.000000,-40.000000,0.000000
5017,48.000000,-40.000000,0.000000
5018,56.000000,-40.000000,0.000000
5019,64.000000,-40.000000,0.000000
5020,72.000000,-40.000000,0.000000
5021,80.000000,-40.000000,0.000000
6001,-80.000000,-32.000000,0.000000
6002,-72.000000,-32.000000,0.000000
6003,-64.000000,-32.000000,0.000000
6004,-56.000000,-32.000000,0.000000
6005,-48.000000,-32.000000,0.000000
6006,-40.000000,-32.000000,0.000000
6007,-32.000000,-32.000000,0.000000
6008,-24.000000,-32.000000,0.000000
6009,-16.000000,-32.000000,0.000000
6010,-8.000000,-32.000000,0.000000
6011,0.000000,-32.000000,0.000000
6012,8.000000,-32.000000,0.000000
6013,16.000000,-32.000000,0.000000
6014,24.000000,-32.000000,0.000000
6015,32.000000,-32.000000,0.000000
6016,40.000000,-32.000000,0.000000
6017,48.000000,-32.000000,0.000000
6018,56.000000,-32.000000,0.000000
6019,64.000000,-32.000000,0.000000
6020,72.000000,-32.000000,0.000000
6021,80.000000,-32.000000,0.000000
7001,-80.000000,-24.000000,0.000000
7002,-72.000000,-24.000000,0.000000
7003,-64.000000,-24.000000,0.000000
7004,-56.000000,-24.000000,0.000000
7005,-48.000000,-24.000000,0.000000
7006,-40.000000,-24.000000,0.000000
7007,-32.000000,-24.000000,0.000000
7008,-24.000000,-24.000000,0.000000
7009,-16.000000,-24.000000,0.000000
7010,-8.000000,-24.000000,0.000000
7011,0.000000,-24.000000,0.000000
7012,8.000000,-24.000000,0.000000
7013,16.000000,-24.000000,0.000000
7014,24.000000,-24.000000,0.000000
7015,32.000000,-24.000000,0.000000
7016,40.000000,-24.000000,0.000000
7017,48.000000,-24.000000,0.000000
7018,56.000000,-24.000000,0.000000
7019,64.000000,-24.000000,0.000000
7020,72.000000,-24.000000,0.000000
7021,80.000000,-24.000000,0.000000
8001,-80.000000,-16.000000,0.000000
8002,-72.000000,-16.000000,0.000000
8003,-64.000000,-16.000000,0.000000
8004,-56.000000,-16.000000,0.000000
8005,-48.000000,-16.000000,0.000000
8006,-40.000000,-16.000000,0.000000
8007,-32.000000,-16.000000,0.000000
8008,-24.000000,-16.000000,0.000000
8009,-16.000000,-16.000000,0.000000
8013,16.000000,-16.000000,0.000000
8014,24.000000,-16.000000,0.000000
8015,32.000000,-16.000000,0.000000
8016,40.000000,-16.000000,0.000000
8017,48.000000,-16.000000,0.000000
8018,56.000000,-16.000000,0.000000
8019,64.000000,-16.000000,0.000000
8020,72.000000,-16.000000,0.000000
8021,80.000000,-16.000000,0.000000
9001,-80.000000,-8.000000,0.000000
9002,-72.000000,-8.000000,0.000000
9003,-64.000000,-8.000000,0.000000
9004,-56.000000,-8.000000,0.000000
9005,-48.000000,-8.000000,0.000000
9006,-40.000000,-8.000000,0.000000
9007,-32.000000,-8.000000,0.000000
9008,-24.000000,-8.000000,0.000000
9014,24.000000,-8.000000,0.000000
9015,32.000000,-8.000000,0.000000
9016,40.000000,-8.000000,0.000000
9017,48.000000,-8.000000,0.000000
9018,56.000000,-8.000000,0.000000
9019,64.000000,-8.000000,0.000000
9020,72.000000,-8.000000,0.000000
9021,80.000000,-8.000000,0.000000
10001,-80.000000,0.000000,0.000000
10002,-72.000000,0.000000,0.000000
10003,-64.000000,0.000000,0.000000
10004,-56.000000,0.000000,0.000000
10005,-48.000000,0.000000,0.000000
10006,-40.000000,0.000000,0.000000
10007,-32.000000,0.000000,0.000000
10008,-24.000000,0.000000,0.000000
10014,24.000000,0.000000,0.000000
10015,32.000000,0.000000,0.000000
10016,40.000000,0.000000,0.000000
10017,48.000000,0.000000,0.000000
10018,56.000000,0.000000,0.000000
10019,64.000000,0.000000,0.000000
10020,72.000000,0.000000,0.000000
10021,80.000000,0.000000,0.000000
11001,-80.000000,8.000000,0.000000
11002,-72.000000,8.000000,0.000000
11003,-64.000000,8.000000,0.000000
11004,-56.000000,8.000000,0.000000
11005,-48.000000,8.000000,0.000000
11006,-40.000000,8.000000,0.000000
11007,-32.000000,8.000000,0.000000
11008,-24.000000,8.000000,0.000000
11014,24.000000,8.000000,0.000000
11015,32.000000,8.000000,0.000000
11016,40.000000,8.000000,0.000000
11017,48.000000,8.000000,0.000000
11018,56.000000,8.000000,0.000000
11019,64.000000,8.000000,0.000000
11020,72.000000,8.000000,0.000000
11021,80.000000,8.000000,0.000000
12001,-80.000000,16.000000,0.000000
12002,-72.000000,16.000000,0.000000
12003,-64.000000,16.000000,0.000000
12004,-56.000000,16.000000,0.000000
12005,-48.000000,16.000000,0.000000
12006,-40.000000,16.000000,0.000000
12007,-32.000000,16.000000,0.000000
12008,-24.000000,16.000000,0.000000
12009,-16.000000,16.000000,0.000000
12013,16.000000,16.000000,0.000000
12014,24.000000,16.000000,0.000000
12015,32.000000,16.000000,0.000000
12016,40.000000,16.000000,0.000000
12017,48.000000,16.000000,0.000000
12018,56.000000,16.000000,0.000000
12019,64.000000,16.000000,0.000000
12020,72.000000,16.000000,0.000000
12021,80.000000,16.000000,0.000000
13001,-80.000000,24.000000,0.000000
13002,-72.000000,24.000000,0.000000
13003,-64.000000,24.000000,0.000000
13004,-56.000000,24.000000,0.000000
13005,-48.000000,24.000000,0.000000
13006,-40.000000,24.000000,0.000000
13007,-32.000000,24.000000,0.000000
13008,-24.000000,24.000000,0.000000
13009,-16.000000,24.000000,0.000000
13010,-8.000000,24.000000,0.000000
13011,0.000000,24.000000,0.000000
13012,8.000000,24.000000,0.000000
13013,16.000000,24.000000,0.000000
13014,24.000000,24.000000,0.000000
13015,32.000000,24.000000,0.000000
13016,40.000000,24.000000,0.000000
13017,48.000000,24.000000,0.000000
13018,56.000000,24.000000,0.000000
13019,64.000000,24.000000,0.000000
13020,72.000000,24.000000,0.000000
13021,80.000000,24.000000,0.000000
14001,-80.000000,32.000000,0.000000
14002,-72.000000,32.000000,0.000000
14003,-64.000000,32.000000,0.000000
14004,-56.000000,32.000000,0.000000
14005,-48.000000,32.000000,0.000000
14006,-40.000000,32.000000,0.000000
14007,-32.000000,32.000000,0.000000
14008,-24.000000,32.000000,0.000000
14009,-16.000000,32.000000,0.000000
14010,-8.000000,32.000000,0.000000
14011,0.000000,32.000000,0.000000
14012,8.000000,32.000000,0.000000
14013,16.000000,32.000000,0.000000
14014,24.000000,32.000000,0.000000
14015,32.000000,32.000000,0.000000
14016,40.000000,32.000000,0.000000
14017,48.000000,32.000000,0.000000
14018,56.000000,32.000000,0.000000
14019,64.000000,32.000000,0.000000
14020,72.000000,32.000000,0.000000
14021,80.000000,32.000000,0.000000
15001,-80.000000,40.000000,0.000000
15002,-72.000000,40.000000,0.000000
15003,-64.000000,40.000000,0.000000
15004,-56.000000,40.000000,0.000000
15005,-48.000000,40.000000,0.000000
15006,-40.000000,40.000000,0.000000
15007,-32.000000,40.000000,0.000000
15008,-24.000000,40.000000,0.000000
15009,-16.000000,40.000000,0.000000
15010,-8.000000,40.000000,0.000000
15011,0.000000,40.000000,0.000000
15012,8.000000,40.000000,0.000000
15013,16.000000,40.000000,0.000000
15014,24.000000,40.000000,0.000000
15015,32.000000,40.000000,0.000000
15016,40.000000,40.000000,0.000000
15017,48.000000,40.000000,0.000000
15018,56.000000,40.000000,0.000000
15019,64.000000,40.000000,0.000000
15020,72.000000,40.000000,0.000000
15021,80.000000,40.000000,0.000000
16001,-80.000000,48.000000,0.000000
16002,-72.000000,48.000000,0.000000
16003,-64.000000,48.000000,0.000000
16004,-56.000000,48.000000,0.000000
16005,-48.000000,48.000000,0.000000
16006,-40.000000,48.000000,0.000000
16007,-32.000000,48.000000,0.000000
16008,-24.000000,48.000000,0.000000
16009,-16.000000,48.000000,0.000000
16010,-8.000000,48.000000,0.000000
16011,0.000000,48.000000,0.000000
16012,8.000000,48.000000,0.000000
16013,16.000000,48.000000,0.000000
16014,24.000000,48.000000,0.000000
16015,32.000000,48.000000,0.000000
16016,40.000000,48.000000,0.000000
16017,48.000000,48.000000,0.000000
16018,56.000000,48.000000,0.000000
16019,64.000000,48.000000,0.000000
16020,72.000000,48.000000,0.000000
16021,80.000000,48.000000,0.000000
17001,-80.000000,56.000000,0.000000
17002,-72.000000,56.000000,0.000000
17003,-64.000000,56.000000,0.000000
17004,-56.000000,56.000000,0.000000
17005,-48.000000,56.000000,0.000000
17006,-40.000000,56.000000,0.000000
17007,-32.000000,56.000000,0.000000
17008,-24.000000,56.000000,0.000000
17009,-16.000000,56.000000,0.000000
17010,-8.000000,56.000000,0.000000
17011,0.000000,56.000000,0.000000
17012,8.000000,56.000000,0.000000
17013,16.000000,56.000000,0.000000
17014,24.000000,56.000000,0.000000
17015,32.000000,56.000000,0.000000
17016,40.000000,56.000000,0.000000
17017,48.000000,56.000000,0.000000
17018,56.000000,56.000000,0.000000
17019,64.000000,56.000000,0.000000
17020,72.000000,56.000000,0.000000
17021,80.000000,56.000000,0.000000
18001,-80.000000,64.000000,0.000000
18002,-72.000000,64.000000,0.000000
18003,-64.000000,64.000000,0.000000
18004,-56.000000,64.000000,0.000000
18005,-48.000000,64.000000,0.000000
18006,-40.000000,64.000000,0.000000
18007,-32.000000,64.000000,0.000000
18008,-24.000000,64.000000,0.000000
18009,-16.000000,64.000000,0.000000
18010,-8.000000,64.000000,0.000000
18011,0.000000,64.000000,0.000000
18012,8.000000,64.000000,0.000000
18013,16.000000,64.000000,0.000000
18014,24.000000,64.000000,0.000000
18015,32.000000,64.000000,0.000000
18016,40.000000,64.000000,0.000000
18017,48.000000,64.000000,0.000000
18018,56.000000,64.000000,0.000000
18019,64.000000,64.000000,0.000000
18020,72.000000,64.000000,0.000000
18021,80.000000,64.000000,0.000000
19001,-80.000000,72.000000,0.000000
19002,-72.000000,72.000000,0.000000
19003,-64.000000,72.000000,0.000000
19004,-56.000000,72.000000,0.000000
19005,-48.000000,72.000000,0.000000
19006,-40.000000,72.000000,0.000000
19007,-32.000000,72.000000,0.000000
19008,-24.000000,72.000000,0.000000
19009,-16.000000,72.000000,0.000000
19010,-8.000000,72.000000,0.000000
19011,0.000000,72.000000,0.000000
19012,8.000000,72.000000,0.000000
19013,16.000000,72.000000,0.000000
19014,24.000000,72.000000,0.000000
19015,32.000000,72.000000,0.000000
19016,40.000000,72.000000,0.000000
19017,48.000000,72.000000,0.000000
19018,56.000000,72.000000,0.000000
19019,64.000000,72.000000,0.000000
19020,72.000000,72.000000,0.000000
19021,80.000000,72.000000,0.000000
20001,-80.000000,80.000000,0.000000
20002,-72.000000,80.000000,0.000000
20003,-64.000000,80.000000,0.000000
20004,-56.000000,80.000000,0.000000
20005,-48.000000,80.000000,0.000000
20006,-40.000000,80.000000,0.000000
20007,-32.000000,80.000000,0.000000
20008,-24.000000,80.000000,0.000000
20009,-16.000000,80.000000,0.000000
20010,-8.000000,80.000000,0.000000
20011,0.000000,80.000000,0.000000
20012,8.000000,80.000000,0.000000
20013,16.000000,80.000000,0.000000
20014,24.000000,80.000000,0.000000
20015,32.000000,80.000000,0.000000
20016,40.000000,80.000000,0.000000
20017,48.000000,80.000000,0.000000
20018,56.000000,80.000000,0.000000
20019,64.000000,80.000000,0.000000
20020,72.000000,80.000000,0.000000
20021,80.000000,80.000000,0.000000
100001,-80.000000,-80.000000,5.375000
100002,-72.000000,-80.000000,5.375000
100003,-64.000000,-80.000000,5.375000
100004,-56.000000,-80.000000,5.375000
100005,-48.000000,-80.000000,5.375000
100006,-40.000000,-80.000000,5.375000
100007,-32.000000,-80.000000,5.375000
100008,-24.000000,-80.000000,5.375000
100009,-16.000000,-80.000000,5.375000
100010,-8.000000,-80.000000,5.375000
100011,0.000000,-80.000000,5.375000
100012,8.000000,-80.000000,5.375000
100013,16.000000,-80.000000,5.375000
100014,24.000000,-80.000000,5.375000
100015,32.000000,-80.000000,5.375000
100016,40.000000,-80.000000,5.375000
100017,48.000000,-80.000000,5.375000
100018,56.000000,-80.000000,5.375000
100019,64.000000,-80.000000,5.375000
100020,72.000000,-80.000000,5.375000
100021,80.000000,-80.000000,5.375000
101001,-80.000000,-72.000000,5.375000
101002,-72.000000,-72.000000,5.375000
101003,-64.000000,-72.000000,5.375000
101004,-56.000000,-72.000000,5.375000
101005,-48.000000,-72.000000,5.375000
101006,-40.000000,-72.000000,5.375000
101007,-32.000000,-72.000000,5.375000
101008,-24.000000,-72.000000,5.375000
101009,-16.000000,-72.000000,5.375000
101010,-8.000000,-72.000000,5.375000
101011,0.000000,-72.000000,5.375000
101012,8.000000,-72.000000,5.375000
101013,16.000000,-72.000000,5.375000
101014,24.000000,-72.000000,5.375000
101015,32.000000,-72.000000,5.375000
101016,40.000000,-72.000000,5.375000
101017,48.000000,-72.000000,5.375000
101018,56.000000,-72.000000,5.375000
101019,64.000000,-72.000000,5.375000
101020,72.000000,-72.000000,5.375000
101021,80.000000,-72.000000,5.375000
102001,-80.000000,-64.000000,5.375000
102002,-72.000000,-64.000000,5.375000
102003,-64.000000,-64.000000,5.375000
102004,-56.000000,-64.000000,5.375000
102005,-48.000000,-64.000000,5.375000
102006,-40.000000,-64.000000,5.375000
102007,-32.000000,-64.000000,5.375000
102008,-24.000000,-64.000000,5.375000
102009,-16.000000,-64.000000,5.375000
102010,-8.000000,-64.000000,5.375000
102011,0.000000,-64.000000,5.375000
102012,8.000000,-64.000000,5.375000
102013,16.000000,-64.000000,5.375000
102014,24.000000,-64.000000,5.375000
102015,32.000000,-64.000000,5.375000
102016,40.000000,-64.000000,5.375000
102017,48.000000,-64.000000,5.375000
102018,56.000000,-64.000000,5.375000
102019,64.000000,-64.000000,5.375000
102020,72.000000,-64.000000,5.375000
102021,80.000000,-64.000000,5.375000
103001,-80.000000,-56.000000,5.375000
103002,-72.000000,-56.000000,5.375000
103003,-64.000000,-56.000000,5.375000
103004,-56.000000,-56.000000,5.375000
103005,-48.000000,-56.000000,5.375000
103006,-40.000000,-56.000000,5.375000
103007,-32.000000,-56.000000,5.375000
103008,-24.000000,-56.000000,5.375000
103009,-16.000000,-56.000000,5.375000
103010,-8.000000,-56.000000,5.375000
103011,0.000000,-56.000000,5.375000
103012,8.000000,-56.000000,5.375000
103013,16.000000,-56.000000,5.375000
103014,24.000000,-56.000000,5.375000
103015,32.000000,-56.000000,5.375000
103016,40.000000,-56.000000,5.375000
103017,48.000000,-56.000000,5.375000
103018,56.000000,-56.000000,5.375000
103019,64.000000,-56.000000,5.375000
103020,72.000000,-56.000000,5.375000
103021,80.000000,-56.000000,5.375000
104001,-80.000000,-48.000000,5.375000
104002,-72.000000,-48.000000,5.375000
104003,-64.000000,-48.000000,5.375000
104004,-56.000000,-48.000000,5.375000
104005,-48.000000,-48.000000,5.375000
104006,-40.000000,-48.000000,5.375000
104007,-32.000000,-48.000000,5.375000
104008,-24.000000,-48.000000,5.375000
104009,-16.000000,-48.000000,5.375000
104010,-8.000000,-48.000000,5.375000
104011,0.000000,-48.000000,5.375000
104012,8.000000,-48.000000,5.375000
104013,16.000000,-48.000000,5.375000
104014,24.000000,-48.000000,5.375000
104015,32.000000,-48.000000,5.375000
104016,40.000000,-48.000000,5.375000
104017,48.000000,-48.000000,5.375000
104018,56.000000,-48.000000,5.375000
104019,64.000000,-48.000000,5.375000
104020,72.000000,-48.000000,5.375000
104021,80.000000,-48.000000,5.375000
105001,-80.000000,-40.000000,5.375000
105002,-72.000000,-40.000000,5.375000
105003,-64.000000,-40.000000,5.375000
105004,-56.000000,-40.000000,5.375000
105005,-48.000000,-40.000000,5.375000
105006,-40.000000,-40.000000,5.375000
105007,-32.000000,-40.000000,5.375000
105008,-24.000000,-40.000000,5.375000
105009,-16.000000,-40.000000,5.375000
105010,-8.000000,-40.000000,5.375000
105011,0.000000,-40.000000,5.375000
105012,8.000000,-40.000000,5.375000
105013,16.000000,-40.000000,5.375000
105014,24.000000,-40.000000,5.375000
105015,32.000000,-40.000000,5.375000
105016,40.000000,-40.000000,5.375000
105017,48.000000,-40.000000,5.375000
105018,56.000000,-40.000000,5.375000
105019,64.000000,-40.000000,5.375000
105020,72.000000,-40.000000,5.375000
105021,80.000000,-40.000000,5.375000
106001,-80.000000,-32.000000,5.375000
106002,-72.000000,-32.000000,5.375000
106003,-64.000000,-32.000000,5.375000
106004,-56.000000,-32.000000,5.375000
106005,-48.000000,-32.000000,5.375000
106006,-40.000000,-32.000000,5.375000
106007,-32.000000,-32.000000,5.375000
106008,-24.000000,-32.000000,5.375000
106009,-16.000000,-32.000000,5.375000
106010,-8.000000,-32.000000,5.375000
106011,0.000000,-32.000000,5.375000
106012,8.000000,-32.000000,5.375000
106013,16.000000,-32.000000,5.375000
106014,24.000000,-32.000000,5.375000
106015,32.000000,-32.000000,5.375000
106016,40.000000,-32.000000,5.375000
106017,48.000000,-32.000000,5.375000
106018,56.000000,-32.000000,5.375000
106019,64.000000,-32.000000,5.375000
106020,72.000000,-32.000000,5.375000
106021,80.000000,-32.000000,5.375000
107001,-80.000000,-24.000000,5.375000
107002,-72.000000,-24.000000,5.375000
107003,-64.000000,-24.000000,5.375000
107004,-56.000000,-24.000000,5.375000
107005,-48.000000,-24.000000,5.375000
107006,-40.000000,-24.000000,5.375000
107007,-32.000000,-24.000000,5.375000
107008,-24.000000,-24.000000,5.375000
107009,-16.000000,-24.000000,5.375000
107010,-8.000000,-24.000000,5.375000
107011,0.000000,-24.000000,5.375000
107012,8.000000,-24.000000,5.375000
107013,16.000000,-24.000000,5.375000
107014,24.000000,-24.000000,5.375000
107015,32.000000,-24.000000,5.375000
107016,40.000000,-24.000000,5.375000
107017,48.000000,-24.000000,5.375000
107018,56.000000,-24.000000,5.375000
107019,64.000000,-24.000000,5.375000
107020,72.000000,-24.000000,5.375000
107021,80.000000,-24.000000,5.375000
108001,-80.000000,-16.000000,5.375000
108002,-72.000000,-16.000000,5.375000
108003,-64.000000,-16.000000,5.375000
108004,-56.000000,-16.000000,5.375000
108005,-48.000000,-16.000000,5.375000
108006,-40.000000,-16.000000,5.375000
108007,-32.000000,-16.000000,5.375000
108008,-24.000000,-16.000000,5.375000
108009,-16.000000,-16.000000,5.375000
108013,16.000000,-16.000000,5.375000
108014,24.000000,-16.000000,5.375000
108015,32.000000,-16.000000,5.375000
108016,40.000000,-16.000000,5.375000
108017,48.000000,-16.000000,5.375000
108018,56.000000,-16.000000,5.375000
108019,64.000000,-16.000000,5.375000
108020,72.000000,-16.000000,5.375000
108021,80.000000,-16.000000,5.375000
109001,-80.000000,-8.000000,5.375000
109002,-72.000000,-8.000000,5.375000
109003,-64.000000,-8.000000,5.375000
109004,-56.000000,-8.000000,5.375000
109005,-48.000000,-8.000000,5.375000
109006,-40.000000,-8.000000,5.375000
109007,-32.000000,-8.000000,5.375000
109008,-24.000000,-8.000000,5.375000
109014,24.000000,-8.000000,5.375000
109015,32.000000,-8.000000,5.375000
109016,40.000000,-8.000000,5.375000
109017,48.000000,-8.000000,5.375000
109018,56.000000,-8.000000,5.375000
109019,64.000000,-8.000000,5.375000
109020,72.000000,-8.000000,5.375000
109021,80.000000,-8.000000,5.375000
110001,-80.000000,0.000000,5.375000
110002,-72.000000,0.000000,5.375000
110003,-64.000000,0.000000,5.375000
110004,-56.000000,0.000000,5.375000
110005,-48.000000,0.000000,5.375000
110006,-40.000000,0.000000,5.375000
110007,-32.000000,0.000000,5.375000
110008,-24.000000,0.000000,5.375000
110014,24.000000,0.000000,5.375000
110015,32.000000,0.000000,5.375000
110016,40.000000,0.000000,5.375000
110017,48.000000,0.000000,5.375000
110018,56.000000,0.000000,5.375000
110019,64.000000,0.000000,5.375000
110020,72.000000,0.000000,5.375000
110021,80.000000,0.000000,5.375000
111001,-80.000000,8.000000,5.375000
111002,-72.000000,8.000000,5.375000
111003,-64.000000,8.000000,5.375000
111004,-56.000000,8.000000,5.375000
111005,-48.000000,8.000000,5.375000
111006,-40.000000,8.000000,5.375000
111007,-32.000000,8.000000,5.375000
111008,-24.000000,8.000000,5.375000
111014,24.000000,8.000000,5.375000
111015,32.000000,8.000000,5.375000
111016,40.000000,8.000000,5.375000
111017,48.000000,8.000000,5.375000
111018,56.000000,8.000000,5.375000
111019,64.000000,8.000000,5.375000
111020,72.000000,8.000000,5.375000
111021,80.000000,8.000000,5.375000
112001,-80.000000,16.000000,5.375000
112002,-72.000000,16.000000,5.375000
112003,-64.000000,16.000000,5.375000
112004,-56.000000,16.000000,5.375000
112005,-48.000000,16.000000,5.375000
112006,-40.000000,16.000000,5.375000
112007,-32.000000,16.000000,5.375000
112008,-24.000000,16.000000,5.375000
112009,-16.000000,16.000000,5.375000
112013,16.000000,16.000000,5.375000
112014,24.000000,16.000000,5.375000
112015,32.000000,16.000000,5.375000
112016,40.000000,16.000000,5.375000
112017,48.000000,16.000000,5.375000
112018,56.000000,16.000000,5.375000
112019,64.000000,16.000000,5.375000
112020,72.000000,16.000000,5.375000
112021,80.000000,16.000000,5.375000
113001,-80.000000,24.000000,5.375000
113002,-72.000000,24.000000,5.375000
113003,-64.000000,24.000000,5.375000
113004,-56.000000,24.000000,5.375000
113005,-48.000000,24.000000,5.375000
113006,-40.000000,24.000000,5.375000
113007,-32.000000,24.000000,5.375000
113008,-24.000000,24.000000,5.375000
113009,-16.000000,24.000000,5.375000
113010,-8.000000,24.000000,5.375000
113011,0.000000,24.000000,5.375000
113012,8.000000,24.000000,5.375000
113013,16.000000,24.000000,5.375000
113014,24.000000,24.000000,5.375000
113015,32.000000,24.000000,5.375000
113016,40.000000,24.000000,5.375000
113017,48.000000,24.000000,5.375000
113018,56.000000,24.000000,5.375000
113019,64.000000,24.000000,5.375000
113020,72.000000,24.000000,5.375000
113021,80.000000,24.000000,5.375000
114001,-80.000000,32.000000,5.375000
114002,-72.000000,32.000000,5.375000
114003,-64.000000,32.000000,5.375000
114004,-56.000000,32.000000,5.375000
114005,-48.000000,32.000000,5.375000
114006,-40.000000,32.000000,5.375000
114007,-32.000000,32.000000,5.375000
114008,-24.000000,32.000000,5.375000
114009,-16.000000,32.000000,5.375000
114010,-8.000000,32.000000,5.375000
114011,0.000000,32.000000,5.375000
114012,8.000000,32.000000,5.375000
114013,16.000000,32.000000,5.375000
114014,24.000000,32.000000,5.375000
114015,32.000000,32.000000,5.375000
114016,40.000000,32.000000,5.375000
114017,48.000000,32.000000,5.375000
114018,56.000000,32.000000,5.375000
114019,64.000000,32.000000,5.375000
114020,72.000000,32.000000,5.375000
114021,80.000000,32.000000,5.375000
115001,-80.000000,40.000000,5.375000
115002,-72.000000,40.000000,5.375000
115003,-64.000000,40.000000,5.375000
115004,-56.000000,40.000000,5.375000
115005,-48.000000,40.000000,5.375000
115006,-40.000000,40.000000,5.375000
115007,-32.000000,40.000000,5.375000
115008,-24.000000,40.000000,5.375000
115009,-16.000000,40.000000,5.375000
115010,-8.000000,40.000000,5.375000
115011,0.000000,40.000000,5.375000
115012,8.000000,40.000000,5.375000
115013,16.000000,40.000000,5.375000
115014,24.000000,40.000000,5.375000
115015,32.000000,40.000000,5.375000
115016,40.000000,40.000000,5.375000
115017,48.000000,40.000000,5.375000
115018,56.000000,40.000000,5.375000
115019,64.000000,40.000000,5.375000
115020,72.000000,40.000000,5.375000
115021,80.000000,40.000000,5.375000
116001,-80.000000,48.000000,5.375000
116002,-72.000000,48.000000,5.375000
116003,-64.000000,48.000000,5.375000
116004,-56.000000,48.000000,5.375000
116005,-48.000000,48.000000,5.375000
116006,-40.000000,48.000000,5.375000
116007,-32.000000,48.000000,5.375000
116008,-24.000000,48.000000,5.375000
116009,-16.000000,48.000000,5.375000
116010,-8.000000,48.000000,5.375000
116011,0.000000,48.000000,5.375000
116012,8.000000,48.000000,5.375000
116013,16.000000,48.000000,5.375000
116014,24.000000,48.000000,5.375000
116015,32.000000,48.000000,5.375000
116016,40.000000,48.000000,5.375000
116017,48.000000,48.000000,5.375000
116018,56.000000,48.000000,5.375000
116019,64.000000,48.000000,5.375000
116020,72.000000,48.000000,5.375000
116021,80.000000,48.000000,5.375000
117001,-80.000000,56.000000,5.375000
117002,-72.000000,56.000000,5.375000
117003,-64.000000,56.000000,5.375000
117004,-56.000000,56.000000,5.375000
117005,-48.000000,56.000000,5.375000
117006,-40.000000,56.000000,5.375000
117007,-32.000000,56.000000,5.375000
117008,-24.000000,56.000000,5.375000
117009,-16.000000,56.000000,5.375000
117010,-8.000000,56.000000,5.375000
117011,0.000000,56.000000,5.375000
117012,8.000000,56.000000,5.375000
117013,16.000000,56.000000,5.375000
117014,24.000000,56.000000,5.375000
117015,32.000000,56.000000,5.375000
117016,40.000000,56.000000,5.375000
117017,48.000000,56.000000,5.375000
117018,56.000000,56.000000,5.375000
117019,64.000000,56.000000,5.375000
117020,72.000000,56.000000,5.375000
117021,80.000000,56.000000,5.375000
118001,-80.000000,64.000000,5.375000
118002,-72.000000,64.000000,5.375000
118003,-64.000000,64.000000,5.375000
118004,-56.000000,64.000000,5.375000
118005,-48.000000,64.000000,5.375000
118006,-40.000000,64.000000,5.375000
118007,-32.000000,64.000000,5.375000
118008,-24.000000,64.000000,5.375000
118009,-16.000000,64.000000,5.375000
118010,-8.000000,64.000000,5.375000
118011,0.000000,64.000000,5.375000
118012,8.000000,64.000000,5.375000
118013,16.000000,64.000000,5.375000
118014,24.000000,64.000000,5.375000
118015,32.000000,64.000000,5.375000
118016,40.000000,64.000000,5.375000
118017,48.000000,64.000000,5.375000
118018,56.000000,64.000000,5.375000
118019,64.000000,64.000000,5.375000
118020,72.000000,64.000000,5.375000
118021,80.000000,64.000000,5.375000
119001,-80.000000,72.000000,5.375000
119002,-72.000000,72.000000,5.375000
119003,-64.000000,72.000000,5.375000
119004,-56.000000,72.000000,5.375000
119005,-48.000000,72.000000,5.375000
119006,-40.000000,72.000000,5.375000
119007,-32.000000,72.000000,5.375000
119008,-24.000000,72.000000,5.375000
119009,-16.000000,72.000000,5.375000
119010,-8.000000,72.000000,5.375000
119011,0.000000,72.000000,5.375000
119012,8.000000,72.000000,5.375000
119013,16.000000,72.000000,5.375000
119014,24.000000,72.000000,5.375000
119015,32.000000,72.000000,5.375000
119016,40.000000,72.000000,5.375000
119017,48.000000,72.000000,5.375000
119018,56.000000,72.000000,5.375000
119019,64.000000,72.000000,5.375000
119020,72.000000,72.000000,5.375000
119021,80.000000,72.000000,5.375000
120001,-80.000000,80.000000,5.375000
120002,-72.000000,80.000000,5.375000
120003,-64.000000,80.000000,5.375000
120004,-56.000000,80.000000,5.375000
120005,-48.000000,80.000000,5.375000
120006,-40.000000,80.000000,5.375000
120007,-32.000000,80.000000,5.375000
120008,-24.000000,80.000000,5.375000
120009,-16.000000,80.000000,5.375000
120010,-8.000000,80.000000,5.375000
120011,0.000000,80.000000,5.375000
120012,8.000000,80.000000,5.375000
120013,16.000000,80.000000,5.375000
120014,24.000000,80.000000,5.375000
120015,32.000000,80.000000,5.375000
120016,40.000000,80.000000,5.375000
120017,48.000000,80.000000,5.375000
120018,56.000000,80.000000,5.375000
120019,64.000000,80.000000,5.375000
120020,72.000000,80.000000,5.375000
120021,80.000000,80.000000,5.375000
200001,-80.000000,-80.000000,10.750000
200002,-72.000000,-80.000000,10.750000
200003,-64.000000,-80.000000,10.750000
200004,-56.000000,-80.000000,10.750000
200005,-48.000000,-80.000000,10.750000
200006,-40.000000,-80.000000,10.750000
200007,-32.000000,-80.000000,10.750000
200008,-24.000000,-80.000000,10.750000
200009,-16.000000,-80.000000,10.750000
200010,-8.000000,-80.000000,10.750000
200011,0.000000,-80.000000,10.750000
200012,8.000000,-80.000000,10.750000
200013,16.000000,-80.000000,10.750000
200014,24.000000,-80.000000,10.750000
200015,32.000000,-80.000000,10.750000
200016,40.000000,-80.000000,10.750000
200017,48.000000,-80.000000,10.750000
200018,56.000000,-80.000000,10.750000
200019,64.000000,-80.000000,10.750000
200020,72.000000,-80.000000,10.750000
200021,80.000000,-80.000000,10.750000
201001,-80.000000,-72.000000,10.750000
201002,-72.000000,-72.000000,10.750000
201003,-64.000000,-72.000000,10.750000
201004,-56.000000,-72.000000,10.750000
201005,-48.000000,-72.000000,10.750000
201006,-40.000000,-72.000000,10.750000
201007,-32.000000,-72.000000,10.750000
201008,-24.000000,-72.000000,10.750000
201009,-16.000000,-72.000000,10.750000
201010,-8.000000,-72.000000,10.750000
201011,0.000000,-72.000000,10.750000
201012,8.000000,-72.000000,10.750000
201013,16.000000,-72.000000,10.750000
201014,24.000000,-72.000000,10.750000
201015,32.000000,-72.000000,10.750000
201016,40.000000,-72.000000,10.750000
201017,48.000000,-72.000000,10.750000
201018,56.000000,-72.000000,10.750000
201019,64.000000,-72.000000,10.750000
201020,72.000000,-72.000000,10.750000
201021,80.000000,-72.000000,10.750000
202001,-80.000000,-64.000000,10.750000
202002,-72.000000,-64.000000,10.750000
202003,-64.000000,-64.000000,10.750000
202004,-56.000000,-64.000000,10.750000
202005,-48.000000,-64.000000,10.750000
202006,-40.000000,-64.000000,10.750000
202007,-32.000000,-64.000000,10.750000
202008,-24.000000,-64.000000,10.750000
202009,-16.000000,-64.000000,10.750000
202010,-8.000000,-64.000000,10.750000
202011,0.000000,-64.000000,10.750000
202012,8.000000,-64.000000,10.750000
202013,16.000000,-64.000000,10.750000
202014,24.000000,-64.000000,10.750000
202015,32.000000,-64.000000,10.750000
202016,40.000000,-64.000000,10.750000
202017,48.000000,-64.000000,10.750000
202018,56.000000,-64.000000,10.750000
202019,64.000000,-64.000000,10.750000
202020,72.000000,-64.000000,10.750000
202021,80.000000,-64.000000,10.750000
203001,-80.000000,-56.000000,10.750000
203002,-72.000000,-56.000000,10.750000
203003,-64.000000,-56.000000,10.750000
203004,-56.000000,-56.000000,10.750000
203005,-48.000000,-56.000000,10.750000
203006,-40.000000,-56.000000,10.750000
203007,-32.000000,-56.000000,10.750000
203008,-24.000000,-56.000000,10.750000
203009,-16.000000,-56.000000,10.750000
203010,-8.000000,-56.000000,10.750000
203011,0.000000,-56.000000,10.750000
203012,8.000000,-56.000000,10.750000
203013,16.000000,-56.000000,10.750000
203014,24.000000,-56.000000,10.750000
203015,32.000000,-56.000000,10.750000
203016,40.000000,-56.000000,10.750000
203017,48.000000,-56.000000,10.750000
203018,56.000000,-56.000000,10.750000
203019,64.000000,-56.000000,10.750000
203020,72.000000,-56.000000,10.750000
203021,80.000000,-56.000000,10.750000
204001,-80.000000,-48.000000,10.750000
204002,-72.000000,-48.000000,10.750000
204003,-64.000000,-48.000000,10.750000
204004,-56.000000,-48.000000,10.750000
204005,-48.000000,-48.000000,10.750000
204006,-40.000000,-48.000000,10.750000
204007,-32.000000,-48.000000,10.750000
204008,-24.000000,-48.000000,10.750000
204009,-16.000000,-48.000000,10.750000
204010,-8.000000,-48.000000,10.750000
204011,0.000000,-48.000000,10.750000
204012,8.000000,-48.000000,10.750000
204013,16.000000,-48.000000,10.750000
204014,24.000000,-48.000000,10.750000
204015,32.000000,-48.000000,10.750000
204016,40.000000,-48.000000,10.750000
204017,48.000000,-48.000000,10.750000
204018,56.000000,-48.000000,10.750000
204019,64.000000,-48.000000,10.750000
204020,72.000000,-48.000000,10.750000
204021,80.000000,-48.000000,10.750000
205001,-80.000000,-40.000000,10.750000
205002,-72.000000,-40.000000,10.750000
205003,-64.000000,-40.000000,10.750000
205004,-56.000000,-40.000000,10.750000
205005,-48.000000,-40.000000,10.750000
205006,-40.000000,-40.000000,10.750000
205007,-32.000000,-40.000000,10.750000
205008,-24.000000,-40.000000,10.750000
205009,-16.000000,-40.000000,10.750000
205010,-8.000000,-40.000000,10.750000
205011,0.000000,-40.000000,10.750000
205012,8.000000,-40.000000,10.750000
205013,16.000000,-40.000000,10.750000
205014,24.000000,-40.000000,10.750000
205015,32.000000,-40.000000,10.750000
205016,40.000000,-40.000000,10.750000
205017,48.000000,-40.000000,10.750000
205018,56.000000,-40.000000,10.750000
205019,64.000000,-40.000000,10.750000
205020,72.000000,-40.000000,10.750000
205021,80.000000,-40.000000,10.750000
206001,-80.000000,-32.000000,10.750000
206002,-72.000000,-32.000000,10.750000
206003,-64.000000,-32.000000,10.750000
206004,-56.000000,-32.000000,10.750000
206005,-48.000000,-32.000000,10.750000
206006,-40.000000,-32.000000,10.750000
206007,-32.000000,-32.000000,10.750000
206008,-24.000000,-32.000000,10.750000
206009,-16.000000,-32.000000,10.750000
206010,-8.000000,-32.000000,10.750000
206011,0.000000,-32.000000,10.750000
206012,8.000000,-32.000000,10.750000
206013,16.000000,-32.000000,10.750000
206014,24.000000,-32.000000,10.750000
206015,32.000000,-32.000000,10.750000
206016,40.000000,-32.000000,10.750000
206017,48.000000,-32.000000,10.750000
206018,56.000000,-32.000000,10.750000
206019,64.000000,-32.000000,10.750000
206020,72.000000,-32.000000,10.750000
206021,80.000000,-32.000000,10.750000
207001,-80.000000,-24.000000,10.750000
207002,-72.000000,-24.000000,10.750000
207003,-64.000000,-24.000000,10.750000
207004,-56.000000,-24.000000,10.750000
207005,-48.000000,-24.000000,10.750000
207006,-40.000000,-24.000000,10.750000
207007,-32.000000,-24.000000,10.750000
207008,-24.000000,-24.000000,10.750000
207009,-16.000000,-24.000000,10.750000
207010,-8.000000,-24.000000,10.750000
207011,0.000000,-24.000000,10.750000
207012,8.000000,-24.000000,10.750000
207013,16.000000,-24.000000,10.750000
207014,24.000000,-24.000000,10.750000
207015,32.000000,-24.000000,10.750000
207016,40.000000,-24.000000,10.750000
207017,48.000000,-24.000000,10.750000
207018,56.000000,-24.000000,10.750000
207019,64.000000,-24.000000,10.750000
207020,72.000000,-24.000000,10.750000
207021,80.000000,-24.000000,10.750000
208001,-80.000000,-16.000000,10.750000
208002,-72.000000,-16.000000,10.750000
208003,-64.000000,-16.000000,10.750000
208004,-56.000000,-16.000000,10.750000
208005,-48.000000,-16.000000,10.750000
208006,-40.000000,-16.000000,10.750000
208007,-32.000000,-16.000000,10.750000
208008,-24.000000,-16.000000,10.750000
208009,-16.000000,-16.000000,10.750000
208013,16.000000,-16.000000,10.750000
208014,24.000000,-16.000000,10.750000
208015,32.000000,-16.000000,10.750000
208016,40.000000,-16.000000,10.750000
208017,48.000000,-16.000000,10.750000
208018,56.000000,-16.000000,10.750000
208019,64.000000,-16.000000,10.750000
208020,72.000000,-16.000000,10.750000
208021,80.000000,-16.000000,10.750000
209001,-80.000000,-8.000000,10.750000
209002,-72.000000,-8.000000,10.750000
209003,-64.000000,-8.000000,10.750000
209004,-56.000000,-8.000000,10.750000
209005,-48.000000,-8.000000,10.750000
209006,-40.000000,-8.000000,10.750000
209007,-32.000000,-8.000000,10.750000
209008,-24.000000,-8.000000,10.750000
209014,24.000000,-8.000000,10.750000
209015,32.000000,-8.000000,10.750000
209016,40.000000,-8.000000,10.750000
209017,48.000000,-8.000000,10.750000
209018,56.000000,-8.000000,10.750000
209019,64.000000,-8.000000,10.750000
209020,72.000000,-8.000000,10.750000
209021,80.000000,-8.000000,10.750000
210001,-80.000000,0.000000,10.750000
210002,-72.000000,0.000000,10.750000
210003,-64.000000,0.000000,10.750000
210004,-56.000000,0.000000,10.750000
210005,-48.000000,0.000000,10.750000
210006,-40.000000,0.000000,10.750000
210007,-32.000000,0.000000,10.750000
210008,-24.000000,0.000000,10.750000
210014,24.000000,0.000000,10.750000
210015,32.000000,0.000000,10.750000
210016,40.000000,0.000000,10.750000
210017,48.000000,0.000000,10.750000
210018,56.000000,0.000000,10.750000
210019,64.000000,0.000000,10.750000
210020,72.000000,0.000000,10.750000
210021,80.000000,0.000000,10.750000
211001,-80.000000,8.000000,10.750000
211002,-72.000000,8.000000,10.750000
211003,-64.000000,8.000000,10.750000
211004,-56.000000,8.000000,10.750000
211005,-48.000000,8.000000,10.750000
211006,-40.000000,8.000000,10.750000
211007,-32.000000,8.000000,10.750000
211008,-24.000000,8.000000,10.750000
211014,24.000000,8.000000,10.750000
211015,32.000000,8.000000,10.750000
211016,40.000000,8.000000,10.750000
211017,48.000000,8.000000,10.750000
211018,56.000000,8.000000,10.750000
211019,64.000000,8.000000,10.750000
211020,72.000000,8.000000,10.750000
211021,80.000000,8.000000,10.750000
212001,-80.000000,16.000000,10.750000
212002,-72.000000,16.000000,10.750000
212003,-64.000000,16.000000,10.750000
212004,-56.000000,16.000000,10.750000
212005,-48.000000,16.000000,10.750000
212006,-40.000000,16.000000,10.750000
212007,-32.000000,16.000000,10.750000
212008,-24.000000,16.000000,10.750000
212009,-16.000000,16.000000,10.750000
212013,16.000000,16.000000,10.750000
212014,24.000000,16.000000,10.750000
212015,32.000000,16.000000,10.750000
212016,40.000000,16.000000,10.750000
212017,48.000000,16.000000,10.750000
212018,56.000000,16.000000,10.750000
212019,64.000000,16.000000,10.750000
212020,72.000000,16.000000,10.750000
212021,80.000000,16.000000,10.750000
213001,-80.000000,24.000000,10.750000
213002,-72.000000,24.000000,10.750000
213003,-64.000000,24.000000,10.750000
213004,-56.000000,24.000000,10.750000
213005,-48.000000,24.000000,10.750000
213006,-40.000000,24.000000,10.750000
213007,-32.000000,24.000000,10.750000
213008,-24.000000,24.000000,10.750000
213009,-16.000000,24.000000,10.750000
213010,-8.000000,24.000000,10.750000
213011,0.000000,24.000000,10.750000
213012,8.000000,24.000000,10.750000
213013,16.000000,24.000000,10.750000
213014,24.000000,24.000000,10.750000
213015,32.000000,24.000000,10.750000
213016,40.000000,24.000000,10.750000
213017,48.000000,24.000000,10.750000
213018,56.000000,24.000000,10.750000
213019,64.000000,24.000000,10.750000
213020,72.000000,24.000000,10.750000
213021,80.000000,24.000000,10.750000
214001,-80.000000,32.000000,10.750000
214002,-72.000000,32.000000,10.750000
214003,-64.000000,32.000000,10.750000
214004,-56.000000,32.000000,10.750000
214005,-48.000000,32.000000,10.750000
214006,-40.000000,32.000000,10.750000
214007,-32.000000,32.000000,10.750000
214008,-24.000000,32.000000,10.750000
214009,-16.000000,32.000000,10.750000
214010,-8.000000,32.000000,10.750000
214011,0.000000,32.000000,10.750000
214012,8.000000,32.000000,10.750000
214013,16.000000,32.000000,10.750000
214014,24.000000,32.000000,10.750000
214015,32.000000,32.000000,10.750000
214016,40.000000,32.000000,10.750000
214017,48.000000,32.000000,10.750000
214018,56.000000,32.000000,10.750000
214019,64.000000,32.000000,10.750000
214020,72.000000,32.000000,10.750000
214021,80.000000,32.000000,10.750000
215001,-80.000000,40.000000,10.750000
215002,-72.000000,40.000000,10.750000
215003,-64.000000,40.000000,10.750000
215004,-56.000000,40.000000,10.750000
215005,-48.000000,40.000000,10.750000
215006,-40.000000,40.000000,10.750000
215007,-32.000000,40.000000,10.750000
215008,-24.000000,40.000000,10.750000
215009,-16.000000,40.000000,10.750000
215010,-8.000000,40.000000,10.750000
215011,0.000000,40.000000,10.750000
215012,8.000000,40.000000,10.750000
215013,16.000000,40.000000,10.750000
215014,24.000000,40.000000,10.750000
215015,32.000000,40.000000,10.750000
215016,40.000000,40.000000,10.750000
215017,48.000000,40.000000,10.750000
215018,56.000000,40.000000,10.750000
215019,64.000000,40.000000,10.750000
215020,72.000000,40.000000,10.750000
215021,80.000000,40.000000,10.750000
216001,-80.000000,48.000000,10.750000
216002,-72.000000,48.000000,10.750000
216003,-64.000000,48.000000,10.750000
216004,-56.000000,48.000000,10.750000
216005,-48.000000,48.000000,10.750000
216006,-40.000000,48.000000,10.750000
216007,-32.000000,48.000000,10.750000
216008,-24.000000,48.000000,10.750000
216009,-16.000000,48.000000,10.750000
216010,-8.000000,48.000000,10.750000
216011,0.000000,48.000000,10.750000
216012,8.000000,48.000000,10.750000
216013,16.000000,48.000000,10.750000
216014,24.000000,48.000000,10.750000
216015,32.000000,48.000000,10.750000
216016,40.000000,48.000000,10.750000
216017,48.000000,48.000000,10.750000
216018,56.000000,48.000000,10.750000
216019,64.000000,48.000000,10.750000
216020,72.000000,48.000000,10.750000
216021,80.000000,48.000000,10.750000
217001,-80.000000,56.000000,10.750000
217002,-72.000000,56.000000,10.750000
217003,-64.000000,56.000000,10.750000
217004,-56.000000,56.000000,10.750000
217005,-48.000000,56.000000,10.750000
217006,-40.000000,56.000000,10.750000
217007,-32.000000,56.000000,10.750000
217008,-24.000000,56.000000,10.750000
217009,-16.000000,56.000000,10.750000
217010,-8.000000,56.000000,10.750000
217011,0.000000,56.000000,10.750000
217012,8.000000,56.000000,10.750000
217013,16.000000,56.000000,10.750000
217014,24.000000,56.000000,10.750000
217015,32.000000,56.000000,10.750000
217016,40.000000,56.000000,10.750000
217017,48.000000,56.000000,10.750000
217018,56.000000,56.000000,10.750000
217019,64.000000,56.000000,10.750000
217020,72.000000,56.000000,10.750000
217021,80.000000,56.000000,10.750000
218001,-80.000000,64.000000,10.750000
218002,-72.000000,64.000000,10.750000
218003,-64.000000,64.000000,10.750000
218004,-56.000000,64.000000,10.750000
218005,-48.000000,64.000000,10.750000
218006,-40.000000,64.000000,10.750000
218007,-32.000000,64.000000,10.750000
218008,-24.000000,64.000000,10.750000
218009,-16.000000,64.000000,10.750000
218010,-8.000000,64.000000,10.750000
218011,0.000000,64.000000,10.750000
218012,8.000000,64.000000,10.750000
218013,16.000000,64.000000,10.750000
218014,24.000000,64.000000,10.750000
218015,32.000000,64.000000,10.750000
218016,40.000000,64.000000,10.750000
218017,48.000000,64.000000,10.750000
218018,56.000000,64.000000,10.750000
218019,64.000000,64.000000,10.750000
218020,72.000000,64.000000,10.750000
218021,80.000000,64.000000,10.750000
219001,-80.000000,72.000000,10.750000
219002,-72.000000,72.000000,10.750000
219003,-64.000000,72.000000,10.750000
219004,-56.000000,72.000000,10.750000
219005,-48.000000,72.000000,10.750000
219006,-40.000000,72.000000,10.750000
219007,-32.000000,72.000000,10.750000
219008,-24.000000,72.000000,10.750000
219009,-16.000000,72.000000,10.750000
219010,-8.000000,72.000000,10.750000
219011,0.000000,72.000000,10.750000
219012,8.000000,72.000000,10.750000
219013,16.000000,72.000000,10.750000
219014,24.000000,72.000000,10.750000
219015,32.000000,72.000000,10.750000
219016,40.000000,72.000000,10.750000
219017,48.000000,72.000000,10.750000
219018,56.000000,72.000000,10.750000
219019,64.000000,72.000000,10.750000
219020,72.000000,72.000000,10.750000
219021,80.000000,72.000000,10.750000
220001,-80.000000,80.000000,10.750000
220002,-72.000000,80.000000,10.750000
220003,-64.000000,80.000000,10.750000
220004,-56.000000,80.000000,10.750000
220005,-48.000000,80.000000,10.750000
220006,-40.000000,80.000000,10.750000
220007,-32.000000,80.000000,10.750000
220008,-24.000000,80.000000,10.750000
220009,-16.000000,80.000000,10.750000
220010,-8.000000,80.000000,10.750000
220011,0.000000,80.000000,10.750000
220012,8.000000,80.000000,10.750000
220013,16.000000,80.000000,10.750000
220014,24.000000,80.000000,10.750000
220015,32.000000,80.000000,10.750000
220016,40.000000,80.000000,10.750000
220017,48.000000,80.000000,10.750000
220018,56.000000,80.000000,10.750000
220019,64.000000,80.000000,10.750000
220020,72.000000,80.000000,10.750000
220021,80.000000,80.000000,10.750000
300001,-80.000000,-80.000000,10.750000
300002,-72.000000,-80.000000,10.750000
300003,-64.000000,-80.000000,10.750000
300004,-56.000000,-80.000000,10.750000
300005,-48.000000,-80.000000,10.750000
300006,-40.000000,-80.000000,10.750000
300007,-32.000000,-80.000000,10.750000
300008,-24.000000,-80.000000,10.750000
300009,-16.000000,-80.000000,10.750000
300010,-8.000000,-80.000000,10.750000
300011,0.000000,-80.000000,10.750000
300012,8.000000,-80.000000,10.750000
300013,16.000000,-80.000000,10.750000
300014,24.000000,-80.000000,10.750000
300015,32.000000,-80.000000,10.750000
300016,40.000000,-80.000000,10.750000
300017,48.000000,-80.000000,10.750000
300018,56.000000,-80.000000,10.750000
300019,64.000000,-80.000000,10.750000
300020,72.000000,-80.000000,10.750000
300021,80.000000,-80.000000,10.750000
301001,-80.000000,-72.000000,10.750000
301002,-72.000000,-72.000000,10.750000
301003,-64.000000,-72.000000,10.750000
301004,-56.000000,-72.000000,10.750000
301005,-48.000000,-72.000000,10.750000
301006,-40.000000,-72.000000,10.750000
301007,-32.000000,-72.000000,10.750000
301008,-24.000000,-72.000000,10.750000
301009,-16.000000,-72.000000,10.750000
301010,-8.000000,-72.000000,10.750000
301011,0.000000,-72.000000,10.750000
301012,8.000000,-72.000000,10.750000
301013,16.000000,-72.000000,10.750000
301014,24.000000,-72.000000,10.750000
301015,32.000000,-72.000000,10.750000
301016,40.000000,-72.000000,10.750000
301017,48.000000,-72.000000,10.750000
301018,56.000000,-72.000000,10.750000
301019,64.000000,-72.000000,10.750000
301020,72.000000,-72.000000,10.750000
301021,80.000000,-72.000000,10.750000
302001,-80.000000,-64.000000,10.750000
302002,-72.000000,-64.000000,10.750000
302003,-64.000000,-64.000000,10.750000
302004,-56.000000,-64.000000,10.750000
302005,-48.000000,-64.000000,10.750000
302006,-40.000000,-64.000000,10.750000
302007,-32.000000,-64.000000,10.750000
302008,-24.000000,-64.000000,10.750000
302009,-16.000000,-64.000000,10.750000
302010,-8.000000,-64.000000,10.750000
302011,0.000000,-64.000000,10.750000
302012,8.000000,-64.000000,10.750000
302013,16.000000,-64.000000,10.750000
302014,24.000000,-64.000000,10.750000
302015,32.000000,-64.000000,10.750000
302016,40.000000,-64.000000,10.750000
302017,48.000000,-64.000000,10.750000
302018,56.000000,-64.000000,10.750000
302019,64.000000,-64.000000,10.750000
302020,72.000000,-64.000000,10.750000
302021,80.000000,-64.000000,10.750000
303001,-80.000000,-56.000000,10.750000
303002,-72.000000,-56.000000,10.750000
303003,-64.000000,-56.000000,10.750000
303004,-56.000000,-56.000000,10.750000
303005,-48.000000,-56.000000,10.750000
303006,-40.000000,-56.000000,10.750000
303007,-32.000000,-56.000000,10.750000
303008,-24.000000,-56.000000,10.750000
303009,-16.000000,-56.000000,10.750000
303010,-8.000000,-56.000000,10.750000
303011,0.000000,-56.000000,10.750000
303012,8.000000,-56.000000,10.750000
303013,16.000000,-56.000000,10.750000
303014,24.000000,-56.000000,10.750000
303015,32.000000,-56.000000,10.750000
303016,40.000000,-56.000000,10.750000
303017,48.000000,-56.000000,10.750000
303018,56.000000,-56.000000,10.750000
303019,64.000000,-56.000000,10.750000
303020,72.000000,-56.000000,10.750000
303021,80.000000,-56.000000,10.750000
304001,-80.000000,-48.000000,10.750000
304002,-72.000000,-48.000000,10.750000
304003,-64.000000,-48.000000,10.750000
304004,-56.000000,-48.000000,10.750000
304005,-48.000000,-48.000000,10.750000
304006,-40.000000,-48.000000,10.750000
304007,-32.000000,-48.000000,10.750000
304008,-24.000000,-48.000000,10.750000
304009,-16.000000,-48.000000,10.750000
304013,16.000000,-48.000000,10.750000
304014,24.000000,-48.000000,10.750000
304015,32.000000,-48.000000,10.750000
304016,40.000000,-48.000000,10.750000
304017,48.000000,-48.000000,10.750000
304018,56.000000,-48.000000,10.750000
304019,64.000000,-48.000000,10.750000
304020,72.000000,-48.000000,10.750000
304021,80.000000,-48.000000,10.750000
305001,-80.000000,-40.000000,10.750000
305002,-72.000000,-40.000000,10.750000
305003,-64.000000,-40.000000,10.750000
305004,-56.000000,-40.000000,10.750000
305005,-48.000000,-40.000000,10.750000
305006,-40.000000,-40.000000,10.750000
305007,-32.000000,-40.000000,10.750000
305015,32.000000,-40.000000,10.750000
305016,40.000000,-40.000000,10.750000
305017,48.000000,-40.000000,10.750000
305018,56.000000,-40.000000,10.750000
305019,64.000000,-40.000000,10.750000
305020,72.000000,-40.000000,10.750000
305021,80.000000,-40.000000,10.750000
306001,-80.000000,-32.000000,10.750000
306002,-72.000000,-32.000000,10.750000
306003,-64.000000,-32.000000,10.750000
306004,-56.000000,-32.000000,10.750000
306005,-48.000000,-32.000000,10.750000
306006,-40.000000,-32.000000,10.750000
306016,40.000000,-32.000000,10.750000
306017,48.000000,-32.000000,10.750000
306018,56.000000,-32.000000,10.750000
306019,64.000000,-32.000000,10.750000
306020,72.000000,-32.000000,10.750000
306021,80.000000,-32.000000,10.750000
307001,-80.000000,-24.000000,10.750000
307002,-72.000000,-24.000000,10.750000
307003,-64.000000,-24.000000,10.750000
307004,-56.000000,-24.000000,10.750000
307005,-48.000000,-24.000000,10.750000
307017,48.000000,-24.000000,10.750000
307018,56.000000,-24.000000,10.750000
307019,64.000000,-24.000000,10.750000
307020,72.000000,-24.000000,10.750000
307021,80.000000,-24.000000,10.750000
308001,-80.000000,-16.000000,10.750000
308002,-72.000000,-16.000000,10.750000
308003,-64.000000,-16.000000,10.750000
308004,-56.000000,-16.000000,10.750000
308005,-48.000000,-16.000000,10.750000
308017,48.000000,-16.000000,10.750000
308018,56.000000,-16.000000,10.750000
308019,64.000000,-16.000000,10.750000
308020,72.000000,-16.000000,10.750000
308021,80.000000,-16.000000,10.750000
309001,-80.000000,-8.000000,10.750000
309002,-72.000000,-8.000000,10.750000
309003,-64.000000,-8.000000,10.750000
309004,-56.000000,-8.000000,10.750000
309018,56.000000,-8.000000,10.750000
309019,64.000000,-8.000000,10.750000
309020,72.000000,-8.000000,10.750000
309021,80.000000,-8.000000,10.750000
310001,-80.000000,0.000000,10.750000
310002,-72.000000,0.000000,10.750000
310003,-64.000000,0.000000,10.750000
310004,-56.000000,0.000000,10.750000
310018,56.000000,0.000000,10.750000
310019,64.000000,0.000000,10.750000
310020,72.000000,0.000000,10.750000
310021,80.000000,0.000000,10.750000
311001,-80.000000,8.000000,10.750000
311002,-72.000000,8.000000,10.750000
311003,-64.000000,8.000000,10.750000
311004,-56.000000,8.000000,10.750000
311018,56.000000,8.000000,10.750000
311019,64.000000,8.000000,10.750000
311020,72.000000,8.000000,10.750000
311021,80.000000,8.000000,10.750000
312001,-80.000000,16.000000,10.750000
312002,-72.000000,16.000000,10.750000
312003,-64.000000,16.000000,10.750000
312004,-56.000000,16.000000,10.750000
312005,-48.000000,16.000000,10.750000
312017,48.000000,16.000000,10.750000
312018,56.000000,16.000000,10.750000
312019,64.000000,16.000000,10.750000
312020,72.000000,16.000000,10.750000
312021,80.000000,16.000000,10.750000
313001,-80.000000,24.000000,10.750000
313002,-72.000000,24.000000,10.750000
313003,-64.000000,24.000000,10.750000
313004,-56.000000,24.000000,10.750000
313005,-48.000000,24.000000,10.750000
313017,48.000000,24.000000,10.750000
313018,56.000000,24.000000,10.750000
313019,64.000000,24.000000,10.750000
313020,72.000000,24.000000,10.750000
313021,80.000000,24.000000,10.750000
314001,-80.000000,32.000000,10.750000
314002,-72.000000,32.000000,10.750000
314003,-64.000000,32.000000,10.750000
314004,-56.000000,32.000000,10.750000
314005,-48.000000,32.000000,10.750000
314006,-40.000000,32.000000,10.750000
314016,40.000000,32.000000,10.750000
314017,48.000000,32.000000,10.750000
314018,56.000000,32.000000,10.750000
314019,64.000000,32.000000,10.750000
314020,72.000000,32.000000,10.750000
314021,80.000000,32.000000,10.750000
315001,-80.000000,40.000000,10.750000
315002,-72.000000,40.000000,10.750000
315003,-64.000000,40.000000,10.750000
315004,-56.000000,40.000000,10.750000
315005,-48.000000,40.000000,10.750000
315006,-40.000000,40.000000,10.750000
315007,-32.000000,40.000000,10.750000
315015,32.000000,40.000000,10.750000
315016,40.000000,40.000000,10.750000
315017,48.000000,40.000000,10.750000
315018,56.000000,40.000000,10.750000
315019,64.000000,40.000000,10.750000
315020,72.000000,40.000000,10.750000
315021,80.000000,40.000000,10.750000
316001,-80.000000,48.000000,10.750000
316002,-72.000000,48.000000,10.750000
316003,-64.000000,48.000000,10.750000
316004,-56.000000,48.000000,10.750000
316005,-48.000000,48.000000,10.750000
316006,-40.000000,48.000000,10.750000
316007,-32.000000,48.000000,10.750000
316008,-24.000000,48.000000,10.750000
316009,-16.000000,48.000000,10.750000
316013,16.000000,48.000000,10.750000
316014,24.000000,48.000000,10.750000
316015,32.000000,48.000000,10.750000
316016,40.000000,48.000000,10.750000
316017,48.000000,48.000000,10.750000
316018,56.000000,48.000000,10.750000
316019,64.000000,48.000000,10.750000
316020,72.000000,48.000000,10.750000
316021,80.000000,48.000000,10.750000
317001,-80.000000,56.000000,10.750000
317002,-72.000000,56.000000,10.750000
317003,-64.000000,56.000000,10.750000
317004,-56.000000,56.000000,10.750000
317005,-48.000000,56.000000,10.750000
317006,-40.000000,56.000000,10.750000
317007,-32.000000,56.000000,10.750000
317008,-24.000000,56.000000,10.750000
317009,-16.000000,56.000000,10.750000
317010,-8.000000,56.000000,10.750000
317011,0.000000,56.000000,10.750000
317012,8.000000,56.000000,10.750000
317013,16.000000,56.000000,10.750000
317014,24.000000,56.000000,10.750000
317015,32.000000,56.000000,10.750000
317016,40.000000,56.000000,10.750000
317017,48.000000,56.000000,10.750000
317018,56.000000,56.000000,10.750000
317019,64.000000,56.000000,10.750000
317020,72.000000,56.000000,10.750000
317021,80.000000,56.000000,10.750000
318001,-80.000000,64.000000,10.750000
318002,-72.000000,64.000000,10.750000
318003,-64.000000,64.000000,10.750000
318004,-56.000000,64.000000,10.750000
318005,-48.000000,64.000000,10.750000
318006,-40.000000,64.000000,10.750000
318007,-32.000000,64.000000,10.750000
318008,-24.000000,64.000000,10.750000
318009,-16.000000,64.000000,10.750000
318010,-8.000000,64.000000,10.750000
318011,0.000000,64.000000,10.750000
318012,8.000000,64.000000,10.750000
318013,16.000000,64.000000,10.750000
318014,24.000000,64.000000,10.750000
318015,32.000000,64.000000,10.750000
318016,40.000000,64.000000,10.750000
318017,48.000000,64.000000,10.750000
318018,56.000000,64.000000,10.750000
318019,64.000000,64.000000,10.750000
318020,72.000000,64.000000,10.750000
318021,80.000000,64.000000,10.750000
319001,-80.000000,72.000000,10.750000
319002,-72.000000,72.000000,10.750000
319003,-64.000000,72.000000,10.750000
319004,-56.000000,72.000000,10.750000
319005,-48.000000,72.000000,10.750000
319006,-40.000000,72.000000,10.750000
319007,-32.000000,72.000000,10.750000
319008,-24.000000,72.000000,10.750000
319009,-16.000000,72.000000,10.750000
319010,-8.000000,72.000000,10.750000
319011,0.000000,72.000000,10.750000
319012,8.000000,72.000000,10.750000
319013,16.000000,72.000000,10.750000
319014,24.000000,72.000000,10.750000
319015,32.000000,72.000000,10.750000
319016,40.000000,72.000000,10.750000
319017,48.000000,72.000000,10.750000
319018,56.000000,72.000000,10.750000
319019,64.000000,72.000000,10.750000
319020,72.000000,72.000000,10.750000
319021,80.000000,72.000000,10.750000
320001,-80.000000,80.000000,10.750000
320002,-72.000000,80.000000,10.750000
320003,-64.000000,80.000000,10.750000
320004,-56.000000,80.000000,10.750000
320005,-48.000000,80.000000,10.750000
320006,-40.000000,80.000000,10.750000
320007,-32.000000,80.000000,10.750000
320008,-24.000000,80.000000,10.750000
320009,-16.000000,80.000000,10.750000
320010,-8.000000,80.000000,10.750000
320011,0.000000,80.000000,10.750000
320012,8.000000,80.000000,10.750000
320013,16.000000,80.000000,10.750000
320014,24.000000,80.000000,10.750000
320015,32.000000,80.000000,10.750000
320016,40.000000,80.000000,10.750000
320017,48.000000,80.000000,10.750000
320018,56.000000,80.000000,10.750000
320019,64.000000,80.000000,10.750000
320020,72.000000,80.000000,10.750000
320021,80.000000,80.000000,10.750000
400001,-80.000000,-80.000000,14.750000
400002,-72.000000,-80.000000,14.750000
400003,-64.000000,-80.000000,14.750000
400004,-56.000000,-80.000000,14.750000
400005,-48.000000,-80.000000,14.750000
400006,-40.000000,-80.000000,14.750000
400007,-32.000000,-80.000000,14.750000
400008,-24.000000,-80.000000,14.750000
400009,-16.000000,-80.000000,14.750000
400010,-8.000000,-80.000000,14.750000
400011,0.000000,-80.000000,14.750000
400012,8.000000,-80.000000,14.750000
400013,16.000000,-80.000000,14.750000
400014,24.000000,-80.000000,14.750000
400015,32.000000,-80.000000,14.750000
400016,40.000000,-80.000000,14.750000
400017,48.000000,-80.000000,14.750000
400018,56.000000,-80.000000,14.750000
400019,64.000000,-80.000000,14.750000
400020,72.000000,-80.000000,14.750000
400021,80.000000,-80.000000,14.750000
401001,-80.000000,-72.000000,14.750000
401002,-72.000000,-72.000000,14.750000
401003,-64.000000,-72.000000,14.750000
401004,-56.000000,-72.000000,14.750000
401005,-48.000000,-72.000000,14.750000
401006,-40.000000,-72.000000,14.750000
401007,-32.000000,-72.000000,14.750000
401008,-24.000000,-72.000000,14.750000
401009,-16.000000,-72.000000,14.750000
401010,-8.000000,-72.000000,14.750000
401011,0.000000,-72.000000,14.750000
401012,8.000000,-72.000000,14.750000
401013,16.000000,-72.000000,14.750000
401014,24.000000,-72.000000,14.750000
401015,32.000000,-72.000000,14.750000
401016,40.000000,-72.000000,14.750000
401017,48.000000,-72.000000,14.750000
401018,56.000000,-72.000000,14.750000
401019,64.000000,-72.000000,14.750000
401020,72.000000,-72.000000,14.750000
401021,80.000000,-72.000000,14.750000
402001,-80.000000,-64.000000,14.750000
402002,-72.000000,-64.000000,14.750000
402003,-64.000000,-64.000000,14.750000
402004,-56.000000,-64.000000,14.750000
402005,-48.000000,-64.000000,14.750000
402006,-40.000000,-64.000000,14.750000
402007,-32.000000,-64.000000,14.750000
402008,-24.000000,-64.000000,14.750000
402009,-16.000000,-64.000000,14.750000
402010,-8.000000,-64.000000,14.750000
402011,0.000000,-64.000000,14.750000
402012,8.000000,-64.000000,14.750000
402013,16.000000,-64.000000,14.750000
402014,24.000000,-64.000000,14.750000
402015,32.000000,-64.000000,14.750000
402016,40.000000,-64.000000,14.750000
402017,48.000000,-64.000000,14.750000
402018,56.000000,-64.000000,14.750000
402019,64.000000,-64.000000,14.750000
402020,72.000000,-64.000000,14.750000
402021,80.000000,-64.000000,14.750000
403001,-80.000000,-56.000000,14.750000
403002,-72.000000,-56.000000,14.750000
403003,-64.000000,-56.000000,14.750000
403004,-56.000000,-56.000000,14.750000
403005,-48.000000,-56.000000,14.750000
403006,-40.000000,-56.000000,14.750000
403007,-32.000000,-56.000000,14.750000
403008,-24.000000,-56.000000,14.750000
403009,-16.000000,-56.000000,14.750000
403010,-8.000000,-56.000000,14.750000
403011,0.000000,-56.000000,14.750000
403012,8.000000,-56.000000,14.750000
403013,16.000000,-56.000000,14.750000
403014,24.000000,-56.000000,14.750000
403015,32.000000,-56.000000,14.750000
403016,40.000000,-56.000000,14.750000
403017,48.000000,-56.000000,14.750000
403018,56.000000,-56.000000,14.750000
403019,64.000000,-56.000000,14.750000
403020,72.000000,-56.000000,14.750000
403021,80.000000,-56.000000,14.750000
404001,-80.000000,-48.000000,14.750000
404002,-72.000000,-48.000000,14.750000
404003,-64.000000,-48.000000,14.750000
404004,-56.000000,-48.000000,14.750000
404005,-48.000000,-48.000000,14.750000
404006,-40.000000,-48.000000,14.750000
404007,-32.000000,-48.000000,14.750000
404008,-24.000000,-48.000000,14.750000
404009,-16.000000,-48.000000,14.750000
404013,16.000000,-48.000000,14.750000
404014,24.000000,-48.000000,14.750000
404015,32.000000,-48.000000,14.750000
404016,40.000000,-48.000000,14.750000
404017,48.000000,-48.000000,14.750000
404018,56.000000,-48.000000,14.750000
404019,64.000000,-48.000000,14.750000
404020,72.000000,-48.000000,14.750000
404021,80.000000,-48.000000,14.750000
405001,-80.000000,-40.000000,14.750000
405002,-72.000000,-40.000000,14.750000
405003,-64.000000,-40.000000,14.750000
405004,-56.000000,-40.000000,14.750000
405005,-48.000000,-40.000000,14.750000
405006,-40.000000,-40.000000,14.750000
405007,-32.000000,-40.000000,14.750000
405015,32.000000,-40.000000,14.750000
405016,40.000000,-40.000000,14.750000
405017,48.000000,-40.000000,14.750000
405018,56.000000,-40.000000,14.750000
405019,64.000000,-40.000000,14.750000
405020,72.000000,-40.000000,14.750000
405021,80.000000,-40.000000,14.750000
406001,-80.000000,-32.000000,14.750000
406002,-72.000000,-32.000000,14.750000
406003,-64.000000,-32.000000,14.750000
406004,-56.000000,-32.000000,14.750000
406005,-48.000000,-32.000000,14.750000
406006,-40.000000,-32.000000,14.750000
406016,40.000000,-32.000000,14.750000
406017,48.000000,-32.000000,14.750000
406018,56.000000,-32.000000,14.750000
406019,64.000000,-32.000000,14.750000
406020,72.000000,-32.000000,14.750000
406021,80.000000,-32.000000,14.750000
407001,-80.000000,-24.000000,14.750000
407002,-72.000000,-24.000000,14.750000
407003,-64.000000,-24.000000,14.750000
407004,-56.000000,-24.000000,14.750000
407005,-48.000000,-24.000000,14.750000
407017,48.000000,-24.000000,14.750000
407018,56.000000,-24.000000,14.750000
407019,64.000000,-24.000000,14.750000
407020,72.000000,-24.000000,14.750000
407021,80.000000,-24.000000,14.750000
408001,-80.000000,-16.000000,14.750000
408002,-72.000000,-16.000000,14.750000
408003,-64.000000,-16.000000,14.750000
408004,-56.000000,-16.000000,14.750000
408005,-48.000000,-16.000000,14.750000
408017,48.000000,-16.000000,14.750000
408018,56.000000,-16.000000,14.750000
408019,64.000000,-16.000000,14.750000
408020,72.000000,-16.000000,14.750000
408021,80.000000,-16.000000,14.750000
409001,-80.000000,-8.000000,14.750000
409002,-72.000000,-8.000000,14.750000
409003,-64.000000,-8.000000,14.750000
409004,-56.000000,-8.000000,14.750000
409018,56.000000,-8.000000,14.750000
409019,64.000000,-8.000000,14.750000
409020,72.000000,-8.000000,14.750000
409021,80.000000,-8.000000,14.750000
410001,-80.000000,0.000000,14.750000
410002,-72.000000,0.000000,14.750000
410003,-64.000000,0.000000,14.750000
410004,-56.000000,0.000000,14.750000
410018,56.000000,0.000000,14.750000
410019,64.000000,0.000000,14.750000
410020,72.000000,0.000000,14.750000
410021,80.000000,0.000000,14.750000
411001,-80.000000,8.000000,14.750000
411002,-72.000000,8.000000,14.750000
411003,-64.000000,8.000000,14.750000
411004,-56.000000,8.000000,14.750000
411018,56.000000,8.000000,14.750000
411019,64.000000,8.000000,14.750000
411020,72.000000,8.000000,14.750000
411021,80.000000,8.000000,14.750000
412001,-80.000000,16.000000,14.750000
412002,-72.000000,16.000000,14.750000
412003,-64.000000,16.000000,14.750000
412004,-56.000000,16.000000,14.750000
412005,-48.000000,16.000000,14.750000
412017,48.000000,16.000000,14.750000
412018,56.000000,16.000000,14.750000
412019,64.000000,16.000000,14.750000
412020,72.000000,16.000000,14.750000
412021,80.000000,16.000000,14.750000
413001,-80.000000,24.000000,14.750000
413002,-72.000000,24.000000,14.750000
413003,-64.000000,24.000000,14.750000
413004,-56.000000,24.000000,14.750000
413005,-48.000000,24.000000,14.750000
413017,48.000000,24.000000,14.750000
413018,56.000000,24.000000,14.750000
413019,64.000000,24.000000,14.750000
413020,72.000000,24.000000,14.750000
413021,80.000000,24.000000,14.750000
414001,-80.000000,32.000000,14.750000
414002,-72.000000,32.000000,14.750000
414003,-64.000000,32.000000,14.750000
414004,-56.000000,32.000000,14.750000
414005,-48.000000,32.000000,14.750000
414006,-40.000000,32.000000,14.750000
414016,40.000000,32.000000,14.750000
414017,48.000000,32.000000,14.750000
414018,56.000000,32.000000,14.750000
414019,64.000000,32.000000,14.750000
414020,72.000000,32.000000,14.750000
414021,80.000000,32.000000,14.750000
415001,-80.000000,40.000000,14.750000
415002,-72.000000,40.000000,14.750000
415003,-64.000000,40.000000,14.750000
415004,-56.000000,40.000000,14.750000
415005,-48.000000,40.000000,14.750000
415006,-40.000000,40.000000,14.750000
415007,-32.000000,40.000000,14.750000
415015,32.000000,40.000000,14.750000
415016,40.000000,40.000000,14.750000
415017,48.000000,40.000000,14.750000
415018,56.000000,40.000000,14.750000
415019,64.000000,40.000000,14.750000
415020,72.000000,40.000000,14.750000
415021,80.000000,40.000000,14.750000
416001,-80.000000,48.000000,14.750000
416002,-72.000000,48.000000,14.750000
416003,-64.000000,48.000000,14.750000
416004,-56.000000,48.000000,14.750000
416005,-48.000000,48.000000,14.750000
416006,-40.000000,48.000000,14.750000
416007,-32.000000,48.000000,14.750000
416008,-24.000000,48.000000,14.750000
416009,-16.000000,48.000000,14.750000
416013,16.000000,48.000000,14.750000
416014,24.000000,48.000000,14.750000
416015,32.000000,48.000000,14.750000
416016,40.000000,48.000000,14.750000
416017,48.000000,48.000000,14.750000
416018,56.000000,48.000000,14.750000
416019,64.000000,48.000000,14.750000
416020,72.000000,48.000000,14.750000
416021,80.000000,48.000000,14.750000
417001,-80.000000,56.000000,14.750000
417002,-72.000000,56.000000,14.750000
417003,-64.000000,56.000000,14.750000
417004,-56.000000,56.000000,14.750000
417005,-48.000000,56.000000,14.750000
417006,-40.000000,56.000000,14.750000
417007,-32.000000,56.000000,14.750000
417008,-24.000000,56.000000,14.750000
417009,-16.000000,56.000000,14.750000
417010,-8.000000,56.000000,14.750000
417011,0.000000,56.000000,14.750000
417012,8.000000,56.000000,14.750000
417013,16.000000,56.000000,14.750000
417014,24.000000,56.000000,14.750000
417015,32.000000,56.000000,14.750000
417016,40.000000,56.000000,14.750000
417017,48.000000,56.000000,14.750000
417018,56.000000,56.000000,14.750000
417019,64.000000,56.000000,14.750000
417020,72.000000,56.000000,14.750000
417021,80.000000,56.000000,14.750000
418001,-80.000000,64.000000,14.750000
418002,-72.000000,64.000000,14.750000
418003,-64.000000,64.000000,14.750000
418004,-56.000000,64.000000,14.750000
418005,-48.000000,64.000000,14.750000
418006,-40.000000,64.000000,14.750000
418007,-32.000000,64.000000,14.750000
418008,-24.000000,64.000000,14.750000
418009,-16.000000,64.000000,14.750000
418010,-8.000000,64.000000,14.750000
418011,0.000000,64.000000,14.750000
418012,8.000000,64.000000,14.750000
418013,16.000000,64.000000,14.750000
418014,24.000000,64.000000,14.750000
418015,32.000000,64.000000,14.750000
418016,40.000000,64.000000,14.750000
418017,48.000000,64.000000,14.750000
418018,56.000000,64.000000,14.750000
418019,64.000000,64.000000,14.750000
418020,72.000000,64.000000,14.750000
418021,80.000000,64.000000,14.750000
419001,-80.000000,72.000000,14.750000
419002,-72.000000,72.000000,14.750000
419003,-64.000000,72.000000,14.750000
419004,-56.000000,72.000000,14.750000
419005,-48.000000,72.000000,14.750000
419006,-40.000000,72.000000,14.750000
419007,-32.000000,72.000000,14.750000
419008,-24.000000,72.000000,14.750000
419009,-16.000000,72.000000,14.750000
419010,-8.000000,72.000000,14.750000
419011,0.000000,72.000000,14.750000
419012,8.000000,72.000000,14.750000
419013,16.000000,72.000000,14.750000
419014,24.000000,72.000000,14.750000
419015,32.000000,72.000000,14.750000
419016,40.000000,72.000000,14.750000
419017,48.000000,72.000000,14.750000
419018,56.000000,72.000000,14.750000
419019,64.000000,72.000000,14.750000
419020,72.000000,72.000000,14.750000
419021,80.000000,72.000000,14.750000
420001,-80.000000,80.000000,14.750000
420002,-72.000000,80.000000,14.750000
420003,-64.000000,80.000000,14.750000
420004,-56.000000,80.000000,14.750000
420005,-48.000000,80.000000,14.750000
420006,-40.000000,80.000000,14.750000
420007,-32.000000,80.000000,14.750000
420008,-24.000000,80.000000,14.750000
420009,-16.000000,80.000000,14.750000
420010,-8.000000,80.000000,14.750000
420011,0.000000,80.000000,14.750000
420012,8.000000,80.000000,14.750000
420013,16.000000,80.000000,14.750000
420014,24.000000,80.000000,14.750000
420015,32.000000,80.000000,14.750000
420016,40.000000,80.000000,14.750000
420017,48.000000,80.000000,14.750000
420018,56.000000,80.000000,14.750000
420019,64.000000,80.000000,14.750000
420020,72.000000,80.000000,14.750000
420021,80.000000,80.000000,14.750000
500001,-80.000000,-80.000000,18.750000
500002,-72.000000,-80.000000,18.750000
500003,-64.000000,-80.000000,18.750000
500004,-56.000000,-80.000000,18.750000
500005,-48.000000,-80.000000,18.750000
500006,-40.000000,-80.000000,18.750000
500007,-32.000000,-80.000000,18.750000
500008,-24.000000,-80.000000,18.750000
500009,-16.000000,-80.000000,18.750000
500010,-8.000000,-80.000000,18.750000
500011,0.000000,-80.000000,18.750000
500012,8.000000,-80.000000,18.750000
500013,16.000000,-80.000000,18.750000
500014,24.000000,-80.000000,18.750000
500015,32.000000,-80.000000,18.750000
500016,40.000000,-80.000000,18.750000
500017,48.000000,-80.000000,18.750000
500018,56.000000,-80.000000,18.750000
500019,64.000000,-80.000000,18.750000
500020,72.000000,-80.000000,18.750000
500021,80.000000,-80.000000,18.750000
501001,-80.000000,-72.000000,18.750000
501002,-72.000000,-72.000000,18.750000
501003,-64.000000,-72.000000,18.750000
501004,-56.000000,-72.000000,18.750000
501005,-48.000000,-72.000000,18.750000
501006,-40.000000,-72.000000,18.750000
501007,-32.000000,-72.000000,18.750000
501008,-24.000000,-72.000000,18.750000
501009,-16.000000,-72.000000,18.750000
501010,-8.000000,-72.000000,18.750000
501011,0.000000,-72.000000,18.750000
501012,8.000000,-72.000000,18.750000
501013,16.000000,-72.000000,18.750000
501014,24.000000,-72.000000,18.750000
501015,32.000000,-72.000000,18.750000
501016,40.000000,-72.000000,18.750000
501017,48.000000,-72.000000,18.750000
501018,56.000000,-72.000000,18.750000
501019,64.000000,-72.000000,18.750000
501020,72.000000,-72.000000,18.750000
501021,80.000000,-72.000000,18.750000
502001,-80.000000,-64.000000,18.750000
502002,-72.000000,-64.000000,18.750000
502003,-64.000000,-64.000000,18.750000
502004,-56.000000,-64.000000,18.750000
502005,-48.000000,-64.000000,18.750000
502006,-40.000000,-64.000000,18.750000
502007,-32.000000,-64.000000,18.750000
502008,-24.000000,-64.000000,18.750000
502009,-16.000000,-64.000000,18.750000
502010,-8.000000,-64.000000,18.750000
502011,0.000000,-64.000000,18.750000
502012,8.000000,-64.000000,18.750000
502013,16.000000,-64.000000,18.750000
502014,24.000000,-64.000000,18.750000
502015,32.000000,-64.000000,18.750000
502016,40.000000,-64.000000,18.750000
502017,48.000000,-64.000000,18.750000
502018,56.000000,-64.000000,18.750000
502019,64.000000,-64.000000,18.750000
502020,72.000000,-64.000000,18.750000
502021,80.000000,-64.000000,18.750000
503001,-80.000000,-56.000000,18.750000
503002,-72.000000,-56.000000,18.750000
503003,-64.000000,-56.000000,18.750000
503004,-56.000000,-56.000000,18.750000
503005,-48.000000,-56.000000,18.750000
503006,-40.000000,-56.000000,18.750000
503007,-32.000000,-56.000000,18.750000
503008,-24.000000,-56.000000,18.750000
503009,-16.000000,-56.000000,18.750000
503010,-8.000000,-56.000000,18.750000
503011,0.000000,-56.000000,18.750000
503012,8.000000,-56.000000,18.750000
503013,16.000000,-56.000000,18.750000
503014,24.000000,-56.000000,18.750000
503015,32.000000,-56.000000,18.750000
503016,40.000000,-56.000000,18.750000
503017,48.000000,-56.000000,18.750000
503018,56.000000,-56.000000,18.750000
503019,64.000000,-56.000000,18.750000
503020,72.000000,-56.000000,18.750000
503021,80.000000,-56.000000,18.750000
504001,-80.000000,-48.000000,18.750000
504002,-72.000000,-48.000000,18.750000
504003,-64.000000,-48.000000,18.750000
504004,-56.000000,-48.000000,18.750000
504005,-48.000000,-48.000000,18.750000
504006,-40.000000,-48.000000,18.750000
504007,-32.000000,-48.000000,18.750000
504008,-24.000000,-48.000000,18.750000
504009,-16.000000,-48.000000,18.750000
504010,-8.000000,-48.000000,18.750000
504011,0.000000,-48.000000,18.750000
504012,8.000000,-48.000000,18.750000
504013,16.000000,-48.000000,18.750000
504014,24.000000,-48.000000,18.750000
504015,32.000000,-48.000000,18.750000
504016,40.000000,-48.000000,18.750000
504017,48.000000,-48.000000,18.750000
504018,56.000000,-48.000000,18.750000
504019,64.000000,-48.000000,18.750000
504020,72.000000,-48.000000,18.750000
504021,80.000000,-48.000000,18.750000
505001,-80.000000,-40.000000,18.750000
505002,-72.000000,-40.000000,18.750000
505003,-64.000000,-40.000000,18.750000
505004,-56.000000,-40.000000,18.750000
505005,-48.000000,-40.000000,18.750000
505006,-40.000000,-40.000000,18.750000
505007,-32.000000,-40.000000,18.750000
505008,-24.000000,-40.000000,18.750000
505009,-16.000000,-40.000000,18.750000
505010,-8.000000,-40.000000,18.750000
505011,0.000000,-40.000000,18.750000
505012,8.000000,-40.000000,18.750000
505013,16.000000,-40.000000,18.750000
505014,24.000000,-40.000000,18.750000
505015,32.000000,-40.000000,18.750000
505016,40.000000,-40.000000,18.750000
505017,48.000000,-40.000000,18.750000
505018,56.000000,-40.000000,18.750000
505019,64.000000,-40.000000,18.750000
505020,72.000000,-40.000000,18.750000
505021,80.000000,-40.000000,18.750000
506001,-80.000000,-32.000000,18.750000
506002,-72.000000,-32.000000,18.750000
506003,-64.000000,-32.000000,18.750000
506004,-56.000000,-32.000000,18.750000
506005,-48.000000,-32.000000,18.750000
506006,-40.000000,-32.000000,18.750000
506007,-32.000000,-32.000000,18.750000
506008,-24.000000,-32.000000,18.750000
506009,-16.000000,-32.000000,18.750000
506010,-8.000000,-32.000000,18.750000
506011,0.000000,-32.000000,18.750000
506012,8.000000,-32.000000,18.750000
506013,16.000000,-32.000000,18.750000
506014,24.000000,-32.000000,18.750000
506015,32.000000,-32.000000,18.750000
506016,40.000000,-32.000000,18.750000
506017,48.000000,-32.000000,18.750000
506018,56.000000,-32.000000,18.750000
506019,64.000000,-32.000000,18.750000
506020,72.000000,-32.000000,18.750000
506021,80.000000,-32.000000,18.750000
507001,-80.000000,-24.000000,18.750000
507002,-72.000000,-24.000000,18.750000
507003,-64.000000,-24.000000,18.750000
507004,-56.000000,-24.000000,18.750000
507005,-48.000000,-24.000000,18.750000
507006,-40.000000,-24.000000,18.750000
507007,-32.000000,-24.000000,18.750000
507008,-24.000000,-24.000000,18.750000
507009,-16.000000,-24.000000,18.750000
507010,-8.000000,-24.000000,18.750000
507011,0.000000,-24.000000,18.750000
507012,8.000000,-24.000000,18.750000
507013,16.000000,-24.000000,18.750000
507014,24.000000,-24.000000,18.750000
507015,32.000000,-24.000000,18.750000
507016,40.000000,-24.000000,18.750000
507017,48.000000,-24.000000,18.750000
507018,56.000000,-24.000000,18.750000
507019,64.000000,-24.000000,18.750000
507020,72.000000,-24.000000,18.750000
507021,80.000000,-24.000000,18.750000
508001,-80.000000,-16.000000,18.750000
508002,-72.000000,-16.000000,18.750000
508003,-64.000000,-16.000000,18.750000
508004,-56.000000,-16.000000,18.750000
508005,-48.000000,-16.000000,18.750000
508006,-40.000000,-16.000000,18.750000
508007,-32.000000,-16.000000,18.750000
508008,-24.000000,-16.000000,18.750000
508009,-16.000000,-16.000000,18.750000
508010,-8.000000,-16.000000,18.750000
508011,0.000000,-16.000000,18.750000
508012,8.000000,-16.000000,18.750000
508013,16.000000,-16.000000,18.750000
508014,24.000000,-16.000000,18.750000
508015,32.000000,-16.000000,18.750000
508016,40.000000,-16.000000,18.750000
508017,48.000000,-16.000000,18.750000
508018,56.000000,-16.000000,18.750000
508019,64.000000,-16.000000,18.750000
508020,72.000000,-16.000000,18.750000
508021,80.000000,-16.000000,18.750000
509001,-80.000000,-8.000000,18.750000
509002,-72.000000,-8.000000,18.750000
509003,-64.000000,-8.000000,18.750000
509004,-56.000000,-8.000000,18.750000
509005,-48.000000,-8.000000,18.750000
509006,-40.000000,-8.000000,18.750000
509007,-32.000000,-8.000000,18.750000
509008,-24.000000,-8.000000,18.750000
509009,-16.000000,-8.000000,18.750000
509010,-8.000000,-8.000000,18.750000
509011,0.000000,-8.000000,18.750000
509012,8.000000,-8.000000,18.750000
509013,16.000000,-8.000000,18.750000
509014,24.000000,-8.000000,18.750000
509015,32.000000,-8.000000,18.750000
509016,40.000000,-8.000000,18.750000
509017,48.000000,-8.000000,18.750000
509018,56.000000,-8.000000,18.750000
509019,64.000000,-8.000000,18.750000
509020,72.000000,-8.000000,18.750000
509021,80.000000,-8.000000,18.750000
510001,-80.000000,0.000000,18.750000
510002,-72.000000,0.000000,18.750000
510003,-64.000000,0.000000,18.750000
510004,-56.000000,0.000000,18.750000
510005,-48.000000,0.000000,18.750000
510006,-40.000000,0.000000,18.750000
510007,-32.000000,0.000000,18.750000
510008,-24.000000,0.000000,18.750000
510009,-16.000000,0.000000,18.750000
510010,-8.000000,0.000000,18.750000
510011,0.000000,0.000000,18.750000
510012,8.000000,0.000000,18.750000
510013,16.000000,0.000000,18.750000
510014,24.000000,0.000000,18.750000
510015,32.000000,0.000000,18.750000
510016,40.000000,0.000000,18.750000
510017,48.000000,0.000000,18.750000
510018,56.000000,0.000000,18.750000
510019,64.000000,0.000000,18.750000
510020,72.000000,0.000000,18.750000
510021,80.000000,0.000000,18.750000
511001,-80.000000,8.000000,18.750000
511002,-72.000000,8.000000,18.750000
511003,-64.000000,8.000000,18.750000
511004,-56.000000,8.000000,18.750000
511005,-48.000000,8.000000,18.750000
511006,-40.000000,8.000000,18.750000
511007,-32.000000,8.000000,18.750000
511008,-24.000000,8.000000,18.750000
511009,-16.000000,8.000000,18.750000
511010,-8.000000,8.000000,18.750000
511011,0.000000,8.000000,18.750000
511012,8.000000,8.000000,18.750000
511013,16.000000,8.000000,18.750000
511014,24.000000,8.000000,18.750000
511015,32.000000,8.000000,18.750000
511016,40.000000,8.000000,18.750000
511017,48.000000,8.000000,18.750000
511018,56.000000,8.000000,18.750000
511019,64.000000,8.000000,18.750000
511020,72.000000,8.000000,18.750000
511021,80.000000,8.000000,18.750000
512001,-80.000000,16.000000,18.750000
512002,-72.000000,16.000000,18.750000
512003,-64.000000,16.000000,18.750000
512004,-56.000000,16.000000,18.750000
512005,-48.000000,16.000000,18.750000
512006,-40.000000,16.000000,18.750000
512007,-32.000000,16.000000,18.750000
512008,-24.000000,16.000000,18.750000
512009,-16.000000,16.000000,18.750000
512010,-8.000000,16.000000,18.750000
512011,0.000000,16.000000,18.750000
512012,8.000000,16.000000,18.750000
512013,16.000000,16.000000,18.750000
512014,24.000000,16.000000,18.750000
512015,32.000000,16.000000,18.750000
512016,40.000000,16.000000,18.750000
512017,48.000000,16.000000,18.750000
512018,56.000000,16.000000,18.750000
512019,64.000000,16.000000,18.750000
512020,72.000000,16.000000,18.750000
512021,80.000000,16.000000,18.750000
513001,-80.000000,24.000000,18.750000
513002,-72.000000,24.000000,18.750000
513003,-64.000000,24.000000,18.750000
513004,-56.000000,24.000000,18.750000
513005,-48.000000,24.000000,18.750000
513006,-40.000000,24.000000,18.750000
513007,-32.000000,24.000000,18.750000
513008,-24.000000,24.000000,18.750000
513009,-16.000000,24.000000,18.750000
513010,-8.000000,24.000000,18.750000
513011,0.000000,24.000000,18.750000
513012,8.000000,24.000000,18.750000
513013,16.000000,24.000000,18.750000
513014,24.000000,24.000000,18.750000
513015,32.000000,24.000000,18.750000
513016,40.000000,24.000000,18.750000
513017,48.000000,24.000000,18.750000
513018,56.000000,24.000000,18.750000
513019,64.000000,24.000000,18.750000
513020,72.000000,24.000000,18.750000
513021,80.000000,24.000000,18.750000
514001,-80.000000,32.000000,18.750000
514002,-72.000000,32.000000,18.750000
514003,-64.000000,32.000000,18.750000
514004,-56.000000,32.000000,18.750000
514005,-48.000000,32.000000,18.750000
514006,-40.000000,32.000000,18.750000
514007,-32.000000,32.000000,18.750000
514008,-24.000000,32.000000,18.750000
514009,-16.000000,32.000000,18.750000
514010,-8.000000,32.000000,18.750000
514011,0.000000,32.000000,18.750000
514012,8.000000,32.000000,18.750000
514013,16.000000,32.000000,18.750000
514014,24.000000,32.000000,18.750000
514015,32.000000,32.000000,18.750000
514016,40.000000,32.000000,18.750000
514017,48.000000,32.000000,18.750000
514018,56.000000,32.000000,18.750000
514019,64.000000,32.000000,18.750000
514020,72.000000,32.000000,18.750000
514021,80.000000,32.000000,18.750000
515001,-80.000000,40.000000,18.750000
515002,-72.000000,40.000000,18.750000
515003,-64.000000,40.000000,18.750000
515004,-56.000000,40.000000,18.750000
515005,-48.000000,40.000000,18.750000
515006,-40.000000,40.000000,18.750000
515007,-32.000000,40.000000,18.750000
515008,-24.000000,40.000000,18.750000
515009,-16.000000,40.000000,18.750000
515010,-8.000000,40.000000,18.750000
515011,0.000000,40.000000,18.750000
515012,8.000000,40.000000,18.750000
515013,16.000000,40.000000,18.750000
515014,24.000000,40.000000,18.750000
515015,32.000000,40.000000,18.750000
515016,40.000000,40.000000,18.750000
515017,48.000000,40.000000,18.750000
515018,56.000000,40.000000,18.750000
515019,64.000000,40.000000,18.750000
515020,72.000000,40.000000,18.750000
515021,80.000000,40.000000,18.750000
516001,-80.000000,48.000000,18.750000
516002,-72.000000,48.000000,18.750000
516003,-64.000000,48.000000,18.750000
516004,-56.000000,48.000000,18.750000
516005,-48.000000,48.000000,18.750000
516006,-40.000000,48.000000,18.750000
516007,-32.000000,48.000000,18.750000
516008,-24.000000,48.000000,18.750000
516009,-16.000000,48.000000,18.750000
516010,-8.000000,48.000000,18.750000
516011,0.000000,48.000000,18.750000
516012,8.000000,48.000000,18.750000
516013,16.000000,48.000000,18.750000
516014,24.000000,48.000000,18.750000
516015,32.000000,48.000000,18.750000
516016,40.000000,48.000000,18.750000
516017,48.000000,48.000000,18.750000
516018,56.000000,48.000000,18.750000
516019,64.000000,48.000000,18.750000
516020,72.000000,48.000000,18.750000
516021,80.000000,48.000000,18.750000
517001,-80.000000,56.000000,18.750000
517002,-72.000000,56.000000,18.750000
517003,-64.000000,56.000000,18.750000
517004,-56.000000,56.000000,18.750000
517005,-48.000000,56.000000,18.750000
517006,-40.000000,56.000000,18.750000
517007,-32.000000,56.000000,18.750000
517008,-24.000000,56.000000,18.750000
517009,-16.000000,56.000000,18.750000
517010,-8.000000,56.000000,18.750000
517011,0.000000,56.000000,18.750000
517012,8.000000,56.000000,18.750000
517013,16.000000,56.000000,18.750000
517014,24.000000,56.000000,18.750000
517015,32.000000,56.000000,18.750000
517016,40.000000,56.000000,18.750000
517017,48.000000,56.000000,18.750000
517018,56.000000,56.000000,18.750000
517019,64.000000,56.000000,18.750000
517020,72.000000,56.000000,18.750000
517021,80.000000,56.000000,18.750000
518001,-80.000000,64.000000,18.750000
518002,-72.000000,64.000000,18.750000
518003,-64.000000,64.000000,18.750000
518004,-56.000000,64.000000,18.750000
518005,-48.000000,64.000000,18.750000
518006,-40.000000,64.000000,18.750000
518007,-32.000000,64.000000,18.750000
518008,-24.000000,64.000000,18.750000
518009,-16.000000,64.000000,18.750000
518010,-8.000000,64.000000,18.750000
518011,0.000000,64.000000,18.750000
518012,8.000000,64.000000,18.750000
518013,16.000000,64.000000,18.750000
518014,24.000000,64.000000,18.750000
518015,32.000000,64.000000,18.750000
518016,40.000000,64.000000,18.750000
518017,48.000000,64.000000,18.750000
518018,56.000000,64.000000,18.750000
518019,64.000000,64.000000,18.750000
518020,72.000000,64.000000,18.750000
518021,80.000000,64.000000,18.750000
519001,-80.000000,72.000000,18.750000
519002,-72.000000,72.000000,18.750000
519003,-64.000000,72.000000,18.750000
519004,-56.000000,72.000000,18.750000
519005,-48.000000,72.000000,18.750000
519006,-40.000000,72.000000,18.750000
519007,-32.000000,72.000000,18.750000
519008,-24.000000,72.000000,18.750000
519009,-16.000000,72.000000,18.750000
519010,-8.000000,72.000000,18.750000
519011,0.000000,72.000000,18.750000
519012,8.000000,72.000000,18.750000
519013,16.000000,72.000000,18.750000
519014,24.000000,72.000000,18.750000
519015,32.000000,72.000000,18.750000
519016,40.000000,72.000000,18.750000
519017,48.000000,72.000000,18.750000
519018,56.000000,72.000000,18.750000
519019,64.000000,72.000000,18.750000
519020,72.000000,72.000000,18.750000
519021,80.000000,72.000000,18.750000
520001,-80.000000,80.000000,18.750000
520002,-72.000000,80.000000,18.750000
520003,-64.000000,80.000000,18.750000
520004,-56.000000,80.000000,18.750000
520005,-48.000000,80.000000,18.750000
520006,-40.000000,80.000000,18.750000
520007,-32.000000,80.000000,18.750000
520008,-24.000000,80.000000,18.750000
520009,-16.000000,80.000000,18.750000
520010,-8.000000,80.000000,18.750000
520011,0.000000,80.000000,18.750000
520012,8.000000,80.000000,18.750000
520013,16.000000,80.000000,18.750000
520014,24.000000,80.000000,18.750000
520015,32.000000,80.000000,18.750000
520016,40.000000,80.000000,18.750000
520017,48.000000,80.000000,18.750000
520018,56.000000,80.000000,18.750000
520019,64.000000,80.000000,18.750000
520020,72.000000,80.000000,18.750000
520021,80.000000,80.000000,18.750000
600001,-80.000000,-80.000000,22.750000
600002,-72.000000,-80.000000,22.750000
600003,-64.000000,-80.000000,22.750000
600004,-56.000000,-80.000000,22.750000
600005,-48.000000,-80.000000,22.750000
600006,-40.000000,-80.000000,22.750000
600007,-32.000000,-80.000000,22.750000
600008,-24.000000,-80.000000,22.750000
600009,-16.000000,-80.000000,22.750000
600010,-8.000000,-80.000000,22.750000
600011,0.000000,-80.000000,22.750000
600012,8.000000,-80.000000,22.750000
600013,16.000000,-80.000000,22.750000
600014,24.000000,-80.000000,22.750000
600015,32.000000,-80.000000,22.750000
600016,40.000000,-80.000000,22.750000
600017,48.000000,-80.000000,22.750000
600018,56.000000,-80.000000,22.750000
600019,64.000000,-80.000000,22.750000
600020,72.000000,-80.000000,22.750000
600021,80.000000,-80.000000,22.750000
601001,-80.000000,-72.000000,22.750000
601002,-72.000000,-72.000000,22.750000
601003,-64.000000,-72.000000,22.750000
601004,-56.000000,-72.000000,22.750000
601005,-48.000000,-72.000000,22.750000
601006,-40.000000,-72.000000,22.750000
601007,-32.000000,-72.000000,22.750000
601008,-24.000000,-72.000000,22.750000
601009,-16.000000,-72.000000,22.750000
601010,-8.000000,-72.000000,22.750000
601011,0.000000,-72.000000,22.750000
601012,8.000000,-72.000000,22.750000
601013,16.000000,-72.000000,22.750000
601014,24.000000,-72.000000,22.750000
601015,32.000000,-72.000000,22.750000
601016,40.000000,-72.000000,22.750000
601017,48.000000,-72.000000,22.750000
601018,56.000000,-72.000000,22.750000
601019,64.000000,-72.000000,22.750000
601020,72.000000,-72.000000,22.750000
601021,80.000000,-72.000000,22.750000
602001,-80.000000,-64.000000,22.750000
602002,-72.000000,-64.000000,22.750000
602003,-64.000000,-64.000000,22.750000
602004,-56.000000,-64.000000,22.750000
602005,-48.000000,-64.000000,22.750000
602006,-40.000000,-64.000000,22.750000
602007,-32.000000,-64.000000,22.750000
602008,-24.000000,-64.000000,22.750000
602009,-16.000000,-64.000000,22.750000
602010,-8.000000,-64.000000,22.750000
602011,0.000000,-64.000000,22.750000
602012,8.000000,-64.000000,22.750000
602013,16.000000,-64.000000,22.750000
602014,24.000000,-64.000000,22.750000
602015,32.000000,-64.000000,22.750000
602016,40.000000,-64.000000,22.750000
602017,48.000000,-64.000000,22.750000
602018,56.000000,-64.000000,22.750000
602019,64.000000,-64.000000,22.750000
602020,72.000000,-64.000000,22.750000
602021,80.000000,-64.000000,22.750000
603001,-80.000000,-56.000000,22.750000
603002,-72.000000,-56.000000,22.750000
603003,-64.000000,-56.000000,22.750000
603004,-56.000000,-56.000000,22.750000
603005,-48.000000,-56.000000,22.750000
603006,-40.000000,-56.000000,22.750000
603007,-32.000000,-56.000000,22.750000
603008,-24.000000,-56.000000,22.750000
603009,-16.000000,-56.000000,22.750000
603010,-8.000000,-56.000000,22.750000
603011,0.000000,-56.000000,22.750000
603012,8.000000,-56.000000,22.750000
603013,16.000000,-56.000000,22.750000
603014,24.000000,-56.000000,22.750000
603015,32.000000,-56.000000,22.750000
603016,40.000000,-56.000000,22.750000
603017,48.000000,-56.000000,22.750000
603018,56.000000,-56.000000,22.750000
603019,64.000000,-56.000000,22.750000
603020,72.000000,-56.000000,22.750000
603021,80.000000,-56.000000,22.750000
604001,-80.000000,-48.000000,22.750000
604002,-72.000000,-48.000000,22.750000
604003,-64.000000,-48.000000,22.750000
604004,-56.000000,-48.000000,22.750000
604005,-48.000000,-48.000000,22.750000
604006,-40.000000,-48.000000,22.750000
604007,-32.000000,-48.000000,22.750000
604008,-24.000000,-48.000000,22.750000
604009,-16.000000,-48.000000,22.750000
604010,-8.000000,-48.000000,22.750000
604011,0.000000,-48.000000,22.750000
604012,8.000000,-48.000000,22.750000
604013,16.000000,-48.000000,22.750000
604014,24.000000,-48.000000,22.750000
604015,32.000000,-48.000000,22.750000
604016,40.000000,-48.000000,22.750000
604017,48.000000,-48.000000,22.750000
604018,56.000000,-48.000000,22.750000
604019,64.000000,-48.000000,22.750000
604020,72.000000,-48.000000,22.750000
604021,80.000000,-48.000000,22.750000
605001,-80.000000,-40.000000,22.750000
605002,-72.000000,-40.000000,22.750000
605003,-64.000000,-40.000000,22.750000
605004,-56.000000,-40.000000,22.750000
605005,-48.000000,-40.000000,22.750000
605006,-40.000000,-40.000000,22.750000
605007,-32.000000,-40.000000,22.750000
605008,-24.000000,-40.000000,22.750000
605009,-16.000000,-40.000000,22.750000
605010,-8.000000,-40.000000,22.750000
605011,0.000000,-40.000000,22.750000
605012,8.000000,-40.000000,22.750000
605013,16.000000,-40.000000,22.750000
605014,24.000000,-40.000000,22.750000
605015,32.000000,-40.000000,22.750000
605016,40.000000,-40.000000,22.750000
605017,48.000000,-40.000000,22.750000
605018,56.000000,-40.000000,22.750000
605019,64.000000,-40.000000,22.750000
605020,72.000000,-40.000000,22.750000
605021,80.000000,-40.000000,22.750000
606001,-80.000000,-32.000000,22.750000
606002,-72.000000,-32.000000,22.750000
606003,-64.000000,-32.000000,22.750000
606004,-56.000000,-32.000000,22.750000
606005,-48.000000,-32.000000,22.750000
606006,-40.000000,-32.000000,22.750000
606007,-32.000000,-32.000000,22.750000
606008,-24.000000,-32.000000,22.750000
606009,-16.000000,-32.000000,22.750000
606010,-8.000000,-32.000000,22.750000
606011,0.000000,-32.000000,22.750000
606012,8.000000,-32.000000,22.750000
606013,16.000000,-32.000000,22.750000
606014,24.000000,-32.000000,22.750000
606015,32.000000,-32.000000,22.750000
606016,40.000000,-32.000000,22.750000
606017,48.000000,-32.000000,22.750000
606018,56.000000,-32.000000,22.750000
606019,64.000000,-32.000000,22.750000
606020,72.000000,-32.000000,22.750000
606021,80.000000,-32.000000,22.750000
607001,-80.000000,-24.000000,22.750000
607002,-72.000000,-24.000000,22.750000
607003,-64.000000,-24.000000,22.750000
607004,-56.000000,-24.000000,22.750000
607005,-48.000000,-24.000000,22.750000
607006,-40.000000,-24.000000,22.750000
607007,-32.000000,-24.000000,22.750000
607008,-24.000000,-24.000000,22.750000
607009,-16.000000,-24.000000,22.750000
607010,-8.000000,-24.000000,22.750000
607011,0.000000,-24.000000,22.750000
607012,8.000000,-24.000000,22.750000
607013,16.000000,-24.000000,22.750000
607014,24.000000,-24.000000,22.750000
607015,32.000000,-24.000000,22.750000
607016,40.000000,-24.000000,22.750000
607017,48.000000,-24.000000,22.750000
607018,56.000000,-24.000000,22.750000
607019,64.000000,-24.000000,22.750000
607020,72.000000,-24.000000,22.750000
607021,80.000000,-24.000000,22.750000
608001,-80.000000,-16.000000,22.750000
608002,-72.000000,-16.000000,22.750000
608003,-64.000000,-16.000000,22.750000
608004,-56.000000,-16.000000,22.750000
608005,-48.000000,-16.000000,22.750000
608006,-40.000000,-16.000000,22.750000
608007,-32.000000,-16.000000,22.750000
608008,-24.000000,-16.000000,22.750000
608009,-16.000000,-16.000000,22.750000
608010,-8.000000,-16.000000,22.750000
608011,0.000000,-16.000000,22.750000
608012,8.000000,-16.000000,22.750000
608013,16.000000,-16.000000,22.750000
608014,24.000000,-16.000000,22.750000
608015,32.000000,-16.000000,22.750000
608016,40.000000,-16.000000,22.750000
608017,48.000000,-16.000000,22.750000
608018,56.000000,-16.000000,22.750000
608019,64.000000,-16.000000,22.750000
608020,72.000000,-16.000000,22.750000
608021,80.000000,-16.000000,22.750000
609001,-80.000000,-8.000000,22.750000
609002,-72.000000,-8.000000,22.750000
609003,-64.000000,-8.000000,22.750000
609004,-56.000000,-8.000000,22.750000
609005,-48.000000,-8.000000,22.750000
609006,-40.000000,-8.000000,22.750000
609007,-32.000000,-8.000000,22.750000
609008,-24.000000,-8.000000,22.750000
609009,-16.000000,-8.000000,22.750000
609010,-8.000000,-8.000000,22.750000
609011,0.000000,-8.000000,22.750000
609012,8.000000,-8.000000,22.750000
609013,16.000000,-8.000000,22.750000
609014,24.000000,-8.000000,22.750000
609015,32.000000,-8.000000,22.750000
609016,40.000000,-8.000000,22.750000
609017,48.000000,-8.000000,22.750000
609018,56.000000,-8.000000,22.750000
609019,64.000000,-8.000000,22.750000
609020,72.000000,-8.000000,22.750000
609021,80.000000,-8.000000,22.750000
610001,-80.000000,0.000000,22.750000
610002,-72.000000,0.000000,22.750000
610003,-64.000000,0.000000,22.750000
610004,-56.000000,0.000000,22.750000
610005,-48.000000,0.000000,22.750000
610006,-40.000000,0.000000,22.750000
610007,-32.000000,0.000000,22.750000
610008,-24.000000,0.000000,22.750000
610009,-16.000000,0.000000,22.750000
610010,-8.000000,0.000000,22.750000
610011,0.000000,0.000000,22.750000
610012,8.000000,0.000000,22.750000
610013,16.000000,0.000000,22.750000
610014,24.000000,0.000000,22.750000
610015,32.000000,0.000000,22.750000
610016,40.000000,0.000000,22.750000
610017,48.000000,0.000000,22.750000
610018,56.000000,0.000000,22.750000
610019,64.000000,0.000000,22.750000
610020,72.000000,0.000000,22.750000
610021,80.000000,0.000000,22.750000
611001,-80.000000,8.000000,22.750000
611002,-72.000000,8.000000,22.750000
611003,-64.000000,8.000000,22.750000
611004,-56.000000,8.000000,22.750000
611005,-48.000000,8.000000,22.750000
611006,-40.000000,8.000000,22.750000
611007,-32.000000,8.000000,22.750000
611008,-24.000000,8.000000,22.750000
611009,-16.000000,8.000000,22.750000
611010,-8.000000,8.000000,22.750000
611011,0.000000,8.000000,22.750000
611012,8.000000,8.000000,22.750000
611013,16.000000,8.000000,22.750000
611014,24.000000,8.000000,22.750000
611015,32.000000,8.000000,22.750000
611016,40.000000,8.000000,22.750000
611017,48.000000,8.000000,22.750000
611018,56.000000,8.000000,22.750000
611019,64.000000,8.000000,22.750000
611020,72.000000,8.000000,22.750000
611021,80.000000,8.000000,22.750000
612001,-80.000000,16.000000,22.750000
612002,-72.000000,16.000000,22.750000
612003,-64.000000,16.000000,22.750000
612004,-56.000000,16.000000,22.750000
612005,-48.000000,16.000000,22.750000
612006,-40.000000,16.000000,22.750000
612007,-32.000000,16.000000,22.750000
612008,-24.000000,16.000000,22.750000
612009,-16.000000,16.000000,22.750000
612010,-8.000000,16.000000,22.750000
612011,0.000000,16.000000,22.750000
612012,8.000000,16.000000,22.750000
612013,16.000000,16.000000,22.750000
612014,24.000000,16.000000,22.750000
612015,32.000000,16.000000,22.750000
612016,40.000000,16.000000,22.750000
612017,48.000000,16.000000,22.750000
612018,56.000000,16.000000,22.750000
612019,64.000000,16.000000,22.750000
612020,72.000000,16.000000,22.750000
612021,80.000000,16.000000,22.750000
613001,-80.000000,24.000000,22.750000
613002,-72.000000,24.000000,22.750000
613003,-64.000000,24.000000,22.750000
613004,-56.000000,24.000000,22.750000
613005,-48.000000,24.000000,22.750000
613006,-40.000000,24.000000,22.750000
613007,-32.000000,24.000000,22.750000
613008,-24.000000,24.000000,22.750000
613009,-16.000000,24.000000,22.750000
613010,-8.000000,24.000000,22.750000
613011,0.000000,24.000000,22.750000
613012,8.000000,24.000000,22.750000
613013,16.000000,24.000000,22.750000
613014,24.000000,24.000000,22.750000
613015,32.000000,24.000000,22.750000
613016,40.000000,24.000000,22.750000
613017,48.000000,24.000000,22.750000
613018,56.000000,24.000000,22.750000
613019,64.000000,24.000000,22.750000
613020,72.000000,24.000000,22.750000
613021,80.000000,24.000000,22.750000
614001,-80.000000,32.000000,22.750000
614002,-72.000000,32.000000,22.750000
614003,-64.000000,32.000000,22.750000
614004,-56.000000,32.000000,22.750000
614005,-48.000000,32.000000,22.750000
614006,-40.000000,32.000000,22.750000
614007,-32.000000,32.000000,22.750000
614008,-24.000000,32.000000,22.750000
614009,-16.000000,32.000000,22.750000
614010,-8.000000,32.000000,22.750000
614011,0.000000,32.000000,22.750000
614012,8.000000,32.000000,22.750000
614013,16.000000,32.000000,22.750000
614014,24.000000,32.000000,22.750000
614015,32.000000,32.000000,22.750000
614016,40.000000,32.000000,22.750000
614017,48.000000,32.000000,22.750000
614018,56.000000,32.000000,22.750000
614019,64.000000,32.000000,22.750000
614020,72.000000,32.000000,22.750000
614021,80.000000,32.000000,22.750000
615001,-80.000000,40.000000,22.750000
615002,-72.000000,40.000000,22.750000
615003,-64.000000,40.000000,22.750000
615004,-56.000000,40.000000,22.750000
615005,-48.000000,40.000000,22.750000
615006,-40.000000,40.000000,22.750000
615007,-32.000000,40.000000,22.750000
615008,-24.000000,40.000000,22.750000
615009,-16.000000,40.000000,22.750000
615010,-8.000000,40.000000,22.750000
615011,0.000000,40.000000,22.750000
615012,8.000000,40.000000,22.750000
615013,16.000000,40.000000,22.750000
615014,24.000000,40.000000,22.750000
615015,32.000000,40.000000,22.750000
615016,40.000000,40.000000,22.750000
615017,48.000000,40.000000,22.750000
615018,56.000000,40.000000,22.750000
615019,64.000000,40.000000,22.750000
615020,72.000000,40.000000,22.750000
615021,80.000000,40.000000,22.750000
616001,-80.000000,48.000000,22.750000
616002,-72.000000,48.000000,22.750000
616003,-64.000000,48.000000,22.750000
616004,-56.000000,48.000000,22.750000
616005,-48.000000,48.000000,22.750000
616006,-40.000000,48.000000,22.750000
616007,-32.000000,48.000000,22.750000
616008,-24.000000,48.000000,22.750000
616009,-16.000000,48.000000,22.750000
616010,-8.000000,48.000000,22.750000
616011,0.000000,48.000000,22.750000
616012,8.000000,48.000000,22.750000
616013,16.000000,48.000000,22.750000
616014,24.000000,48.000000,22.750000
616015,32.000000,48.000000,22.750000
616016,40.000000,48.000000,22.750000
616017,48.000000,48.000000,22.750000
616018,56.000000,48.000000,22.750000
616019,64.000000,48.000000,22.750000
616020,72.000000,48.000000,22.750000
616021,80.000000,48.000000,22.750000
617001,-80.000000,56.000000,22.750000
617002,-72.000000,56.000000,22.750000
617003,-64.000000,56.000000,22.750000
617004,-56.000000,56.000000,22.750000
617005,-48.000000,56.000000,22.750000
617006,-40.000000,56.000000,22.750000
617007,-32.000000,56.000000,22.750000
617008,-24.000000,56.000000,22.750000
617009,-16.000000,56.000000,22.750000
617010,-8.000000,56.000000,22.750000
617011,0.000000,56.000000,22.750000
617012,8.000000,56.000000,22.750000
617013,16.000000,56.000000,22.750000
617014,24.000000,56.000000,22.750000
617015,32.000000,56.000000,22.750000
617016,40.000000,56.000000,22.750000
617017,48.000000,56.000000,22.750000
617018,56.000000,56.000000,22.750000
617019,64.000000,56.000000,22.750000
617020,72.000000,56.000000,22.750000
617021,80.000000,56.000000,22.750000
618001,-80.000000,64.000000,22.750000
618002,-72.000000,64.000000,22.750000
618003,-64.000000,64.000000,22.750000
618004,-56.000000,64.000000,22.750000
618005,-48.000000,64.000000,22.750000
618006,-40.000000,64.000000,22.750000
618007,-32.000000,64.000000,22.750000
618008,-24.000000,64.000000,22.750000
618009,-16.000000,64.000000,22.750000
618010,-8.000000,64.000000,22.750000
618011,0.000000,64.000000,22.750000
618012,8.000000,64.000000,22.750000
618013,16.000000,64.000000,22.750000
618014,24.000000,64.000000,22.750000
618015,32.000000,64.000000,22.750000
618016,40.000000,64.000000,22.750000
618017,48.000000,64.000000,22.750000
618018,56.000000,64.000000,22.750000
618019,64.000000,64.000000,22.750000
618020,72.000000,64.000000,22.750000
618021,80.000000,64.000000,22.750000
619001,-80.000000,72.000000,22.750000
619002,-72.000000,72.000000,22.750000
619003,-64.000000,72.000000,22.750000
619004,-56.000000,72.000000,22.750000
619005,-48.000000,72.000000,22.750000
619006,-40.000000,72.000000,22.750000
619007,-32.000000,72.000000,22.750000
619008,-24.000000,72.000000,22.750000
619009,-16.000000,72.000000,22.750000
619010,-8.000000,72.000000,22.750000
619011,0.000000,72.000000,22.750000
619012,8.000000,72.000000,22.750000
619013,16.000000,72.000000,22.750000
619014,24.000000,72.000000,22.750000
619015,32.000000,72.000000,22.750000
619016,40.000000,72.000000,22.750000
619017,48.000000,72.000000,22.750000
619018,56.000000,72.000000,22.750000
619019,64.000000,72.000000,22.750000
619020,72.000000,72.000000,22.750000
619021,80.000000,72.000000,22.750000
620001,-80.000000,80.000000,22.750000
620002,-72.000000,80.000000,22.750000
620003,-64.000000,80.000000,22.750000
620004,-56.000000,80.000000,22.750000
620005,-48.000000,80.000000,22.750000
620006,-40.000000,80.000000,22.750000
620007,-32.000000,80.000000,22.750000
620008,-24.000000,80.000000,22.750000
620009,-16.000000,80.000000,22.750000
620010,-8.000000,80.000000,22.750000
620011,0.000000,80.000000,22.750000
620012,8.000000,80.000000,22.750000
620013,16.000000,80.000000,22.750000
620014,24.000000,80.000000,22.750000
620015,32.000000,80.000000,22.750000
620016,40.000000,80.000000,22.750000
620017,48.000000,80.000000,22.750000
620018,56.000000,80.000000,22.750000
620019,64.000000,80.000000,22.750000
620020,72.000000,80.000000,22.750000
620021,80.000000,80.000000,22.750000
701009,-16.000000,-72.000000,22.750000
701010,-8.000000,-72.000000,22.750000
701011,0.000000,-72.000000,22.750000
701012,8.000000,-72.000000,22.750000
701013,16.000000,-72.000000,22.750000
702007,-32.000000,-64.000000,22.750000
702008,-24.000000,-64.000000,22.750000
702009,-16.000000,-64.000000,22.750000
702010,-8.000000,-64.000000,22.750000
702011,0.000000,-64.000000,22.750000
702012,8.000000,-64.000000,22.750000
702013,16.000000,-64.000000,22.750000
702014,24.000000,-64.000000,22.750000
702015,32.000000,-64.000000,22.750000
703005,-48.000000,-56.000000,22.750000
703006,-40.000000,-56.000000,22.750000
703007,-32.000000,-56.000000,22.750000
703008,-24.000000,-56.000000,22.750000
703009,-16.000000,-56.000000,22.750000
703010,-8.000000,-56.000000,22.750000
703011,0.000000,-56.000000,22.750000
703012,8.000000,-56.000000,22.750000
703013,16.000000,-56.000000,22.750000
703014,24.000000,-56.000000,22.750000
703015,32.000000,-56.000000,22.750000
703016,40.000000,-56.000000,22.750000
703017,48.000000,-56.000000,22.750000
704004,-56.000000,-48.000000,22.750000
704005,-48.000000,-48.000000,22.750000
704006,-40.000000,-48.000000,22.750000
704007,-32.000000,-48.000000,22.750000
704008,-24.000000,-48.000000,22.750000
704009,-16.000000,-48.000000,22.750000
704010,-8.000000,-48.000000,22.750000
704011,0.000000,-48.000000,22.750000
704012,8.000000,-48.000000,22.750000
704013,16.000000,-48.000000,22.750000
704014,24.000000,-48.000000,22.750000
704015,32.000000,-48.000000,22.750000
704016,40.000000,-48.000000,22.750000
704017,48.000000,-48.000000,22.750000
704018,56.000000,-48.000000,22.750000
705004,-56.000000,-40.000000,22.750000
705005,-48.000000,-40.000000,22.750000
705006,-40.000000,-40.000000,22.750000
705007,-32.000000,-40.000000,22.750000
705008,-24.000000,-40.000000,22.750000
705009,-16.000000,-40.000000,22.750000
705010,-8.000000,-40.000000,22.750000
705011,0.000000,-40.000000,22.750000
705012,8.000000,-40.000000,22.750000
705013,16.000000,-40.000000,22.750000
705014,24.000000,-40.000000,22.750000
705015,32.000000,-40.000000,22.750000
705016,40.000000,-40.000000,22.750000
705017,48.000000,-40.000000,22.750000
705018,56.000000,-40.000000,22.750000
706003,-64.000000,-32.000000,22.750000
706004,-56.000000,-32.000000,22.750000
706005,-48.000000,-32.000000,22.750000
706006,-40.000000,-32.000000,22.750000
706007,-32.000000,-32.000000,22.750000
706008,-24.000000,-32.000000,22.750000
706009,-16.000000,-32.000000,22.750000
706010,-8.000000,-32.000000,22.750000
706011,0.000000,-32.000000,22.750000
706012,8.000000,-32.000000,22.750000
706013,16.000000,-32.000000,22.750000
706014,24.000000,-32.000000,22.750000
706015,32.000000,-32.000000,22.750000
706016,40.000000,-32.000000,22.750000
706017,48.000000,-32.000000,22.750000
706018,56.000000,-32.000000,22.750000
706019,64.000000,-32.000000,22.750000
707003,-64.000000,-24.000000,22.750000
707004,-56.000000,-24.000000,22.750000
707005,-48.000000,-24.000000,22.750000
707006,-40.000000,-24.000000,22.750000
707007,-32.000000,-24.000000,22.750000
707008,-24.000000,-24.000000,22.750000
707009,-16.000000,-24.000000,22.750000
707010,-8.000000,-24.000000,22.750000
707011,0.000000,-24.000000,22.750000
707012,8.000000,-24.000000,22.750000
707013,16.000000,-24.000000,22.750000
707014,24.000000,-24.000000,22.750000
707015,32.000000,-24.000000,22.750000
707016,40.000000,-24.000000,22.750000
707017,48.000000,-24.000000,22.750000
707018,56.000000,-24.000000,22.750000
707019,64.000000,-24.000000,22.750000
708002,-72.000000,-16.000000,22.750000
708003,-64.000000,-16.000000,22.750000
708004,-56.000000,-16.000000,22.750000
708005,-48.000000,-16.000000,22.750000
708006,-40.000000,-16.000000,22.750000
708007,-32.000000,-16.000000,22.750000
708008,-24.000000,-16.000000,22.750000
708009,-16.000000,-16.000000,22.750000
708013,16.000000,-16.000000,22.750000
708014,24.000000,-16.000000,22.750000
708015,32.000000,-16.000000,22.750000
708016,40.000000,-16.000000,22.750000
708017,48.000000,-16.000000,22.750000
708018,56.000000,-16.000000,22.750000
708019,64.000000,-16.000000,22.750000
708020,72.000000,-16.000000,22.750000
709002,-72.000000,-8.000000,22.750000
709003,-64.000000,-8.000000,22.750000
709004,-56.000000,-8.000000,22.750000
709005,-48.000000,-8.000000,22.750000
709006,-40.000000,-8.000000,22.750000
709007,-32.000000,-8.000000,22.750000
709008,-24.000000,-8.000000,22.750000
709014,24.000000,-8.000000,22.750000
709015,32.000000,-8.000000,22.750000
709016,40.000000,-8.000000,22.750000
709017,48.000000,-8.000000,22.750000
709018,56.000000,-8.000000,22.750000
709019,64.000000,-8.000000,22.750000
709020,72.000000,-8.000000,22.750000
710002,-72.000000,0.000000,22.750000
710003,-64.000000,0.000000,22.750000
710004,-56.000000,0.000000,22.750000
710005,-48.000000,0.000000,22.750000
710006,-40.000000,0.000000,22.750000
710007,-32.000000,0.000000,22.750000
710008,-24.000000,0.000000,22.750000
710014,24.000000,0.000000,22.750000
710015,32.000000,0.000000,22.750000
710016,40.000000,0.000000,22.750000
710017,48.000000,0.000000,22.750000
710018,56.000000,0.000000,22.750000
710019,64.000000,0.000000,22.750000
710020,72.000000,0.000000,22.750000
711002,-72.000000,8.000000,22.750000
711003,-64.000000,8.000000,22.750000
711004,-56.000000,8.000000,22.750000
711005,-48.000000,8.000000,22.750000
711006,-40.000000,8.000000,22.750000
711007,-32.000000,8.000000,22.750000
711008,-24.000000,8.000000,22.750000
711014,24.000000,8.000000,22.750000
711015,32.000000,8.000000,22.750000
711016,40.000000,8.000000,22.750000
711017,48.000000,8.000000,22.750000
711018,56.000000,8.000000,22.750000
711019,64.000000,8.000000,22.750000
711020,72.000000,8.000000,22.750000
712002,-72.000000,16.000000,22.750000
712003,-64.000000,16.000000,22.750000
712004,-56.000000,16.000000,22.750000
712005,-48.000000,16.000000,22.750000
712006,-40.000000,16.000000,22.750000
712007,-32.000000,16.000000,22.750000
712008,-24.000000,16.000000,22.750000
712009,-16.000000,16.000000,22.750000
712013,16.000000,16.000000,22.750000
712014,24.000000,16.000000,22.750000
712015,32.000000,16.000000,22.750000
712016,40.000000,16.000000,22.750000
712017,48.000000,16.000000,22.750000
712018,56.000000,16.000000,22.750000
712019,64.000000,16.000000,22.750000
712020,72.000000,16.000000,22.750000
713003,-64.000000,24.000000,22.750000
713004,-56.000000,24.000000,22.750000
713005,-48.000000,24.000000,22.750000
713006,-40.000000,24.000000,22.750000
713007,-32.000000,24.000000,22.750000
713008,-24.000000,24.000000,22.750000
713009,-16.000000,24.000000,22.750000
713010,-8.000000,24.000000,22.750000
713011,0.000000,24.000000,22.750000
713012,8.000000,24.000000,22.750000
713013,16.000000,24.000000,22.750000
713014,24.000000,24.000000,22.750000
713015,32.000000,24.000000,22.750000
713016,40.000000,24.000000,22.750000
713017,48.000000,24.000000,22.750000
713018,56.000000,24.000000,22.750000
713019,64.000000,24.000000,22.750000
714003,-64.000000,32.000000,22.750000
714004,-56.000000,32.000000,22.750000
714005,-48.000000,32.000000,22.750000
714006,-40.000000,32.000000,22.750000
714007,-32.000000,32.000000,22.750000
714008,-24.000000,32.000000,22.750000
714009,-16.000000,32.000000,22.750000
714010,-8.000000,32.000000,22.750000
714011,0.000000,32.000000,22.750000
714012,8.000000,32.000000,22.750000
714013,16.000000,32.000000,22.750000
714014,24.000000,32.000000,22.750000
714015,32.000000,32.000000,22.750000
714016,40.000000,32.000000,22.750000
714017,48.000000,32.000000,22.750000
714018,56.000000,32.000000,22.750000
714019,64.000000,32.000000,22.750000
715004,-56.000000,40.000000,22.750000
715005,-48.000000,40.000000,22.750000
715006,-40.000000,40.000000,22.750000
715007,-32.000000,40.000000,22.750000
715008,-24.000000,40.000000,22.750000
715009,-16.000000,40.000000,22.750000
715010,-8.000000,40.000000,22.750000
715011,0.000000,40.000000,22.750000
715012,8.000000,40.000000,22.750000
715013,16.000000,40.000000,22.750000
715014,24.000000,40.000000,22.750000
715015,32.000000,40.000000,22.750000
715016,40.000000,40.000000,22.750000
715017,48.000000,40.000000,22.750000
715018,56.000000,40.000000,22.750000
716004,-56.000000,48.000000,22.750000
716005,-48.000000,48.000000,22.750000
716006,-40.000000,48.000000,22.750000
716007,-32.000000,48.000000,22.750000
716008,-24.000000,48.000000,22.750000
716009,-16.000000,48.000000,22.750000
716010,-8.000000,48.000000,22.750000
716011,0.000000,48.000000,22.750000
716012,8.000000,48.000000,22.750000
716013,16.000000,48.000000,22.750000
716014,24.000000,48.000000,22.750000
716015,32.000000,48.000000,22.750000
716016,40.000000,48.000000,22.750000
716017,48.000000,48.000000,22.750000
716018,56.000000,48.000000,22.750000
717005,-48.000000,56.000000,22.750000
717006,-40.000000,56.000000,22.750000
717007,-32.000000,56.000000,22.750000
717008,-24.000000,56.000000,22.750000
717009,-16.000000,56.000000,22.750000
717010,-8.000000,56.000000,22.750000
717011,0.000000,56.000000,22.750000
717012,8.000000,56.000000,22.750000
717013,16.000000,56.000000,22.750000
717014,24.000000,56.000000,22.750000
717015,32.000000,56.000000,22.750000
717016,40.000000,56.000000,22.750000
717017,48.000000,56.000000,22.750000
718007,-32.000000,64.000000,22.750000
718008,-24.000000,64.000000,22.750000
718009,-16.000000,64.000000,22.750000
718010,-8.000000,64.000000,22.750000
718011,0.000000,64.000000,22.750000
718012,8.000000,64.000000,22.750000
718013,16.000000,64.000000,22.750000
718014,24.000000,64.000000,22.750000
718015,32.000000,64.000000,22.750000
719009,-16.000000,72.000000,22.750000
719010,-8.000000,72.000000,22.750000
719011,0.000000,72.000000,22.750000
719012,8.000000,72.000000,22.750000
719013,16.000000,72.000000,22.750000
801009,-16.000000,-72.000000,26.750000
801010,-8.000000,-72.000000,26.750000
801011,0.000000,-72.000000,26.750000
801012,8.000000,-72.000000,26.750000
801013,16.000000,-72.000000,26.750000
802007,-32.000000,-64.000000,26.750000
802008,-24.000000,-64.000000,26.750000
802009,-16.000000,-64.000000,26.750000
802010,-8.000000,-64.000000,26.750000
802011,0.000000,-64.000000,26.750000
802012,8.000000,-64.000000,26.750000
802013,16.000000,-64.000000,26.750000
802014,24.000000,-64.000000,26.750000
802015,32.000000,-64.000000,26.750000
803005,-48.000000,-56.000000,26.750000
803006,-40.000000,-56.000000,26.750000
803007,-32.000000,-56.000000,26.750000
803008,-24.000000,-56.000000,26.750000
803009,-16.000000,-56.000000,26.750000
803010,-8.000000,-56.000000,26.750000
803011,0.000000,-56.000000,26.750000
803012,8.000000,-56.000000,26.750000
803013,16.000000,-56.000000,26.750000
803014,24.000000,-56.000000,26.750000
803015,32.000000,-56.000000,26.750000
803016,40.000000,-56.000000,26.750000
803017,48.000000,-56.000000,26.750000
804004,-56.000000,-48.000000,26.750000
804005,-48.000000,-48.000000,26.750000
804006,-40.000000,-48.000000,26.750000
804007,-32.000000,-48.000000,26.750000
804008,-24.000000,-48.000000,26.750000
804009,-16.000000,-48.000000,26.750000
804010,-8.000000,-48.000000,26.750000
804011,0.000000,-48.000000,26.750000
804012,8.000000,-48.000000,26.750000
804013,16.000000,-48.000000,26.750000
804014,24.000000,-48.000000,26.750000
804015,32.000000,-48.000000,26.750000
804016,40.000000,-48.000000,26.750000
804017,48.000000,-48.000000,26.750000
804018,56.000000,-48.000000,26.750000
805004,-56.000000,-40.000000,26.750000
805005,-48.000000,-40.000000,26.750000
805006,-40.000000,-40.000000,26.750000
805007,-32.000000,-40.000000,26.750000
805008,-24.000000,-40.000000,26.750000
805009,-16.000000,-40.000000,26.750000
805010,-8.000000,-40.000000,26.750000
805011,0.000000,-40.000000,26.750000
805012,8.000000,-40.000000,26.750000
805013,16.000000,-40.000000,26.750000
805014,24.000000,-40.000000,26.750000
805015,32.000000,-40.000000,26.750000
805016,40.000000,-40.000000,26.750000
805017,48.000000,-40.000000,26.750000
805018,56.000000,-40.000000,26.750000
806003,-64.000000,-32.000000,26.750000
806004,-56.000000,-32.000000,26.750000
806005,-48.000000,-32.000000,26.750000
806006,-40.000000,-32.000000,26.750000
806007,-32.000000,-32.000000,26.750000
806008,-24.000000,-32.000000,26.750000
806009,-16.000000,-32.000000,26.750000
806010,-8.000000,-32.000000,26.750000
806011,0.000000,-32.000000,26.750000
806012,8.000000,-32.000000,26.750000
806013,16.000000,-32.000000,26.750000
806014,24.000000,-32.000000,26.750000
806015,32.000000,-32.000000,26.750000
806016,40.000000,-32.000000,26.750000
806017,48.000000,-32.000000,26.750000
806018,56.000000,-32.000000,26.750000
806019,64.000000,-32.000000,26.750000
807003,-64.000000,-24.000000,26.750000
807004,-56.000000,-24.000000,26.750000
807005,-48.000000,-24.000000,26.750000
807006,-40.000000,-24.000000,26.750000
807007,-32.000000,-24.000000,26.750000
807008,-24.000000,-24.000000,26.750000
807009,-16.000000,-24.000000,26.750000
807010,-8.000000,-24.000000,26.750000
807011,0.000000,-24.000000,26.750000
807012,8.000000,-24.000000,26.750000
807013,16.000000,-24.000000,26.750000
807014,24.000000,-24.000000,26.750000
807015,32.000000,-24.000000,26.750000
807016,40.000000,-24.000000,26.750000
807017,48.000000,-24.000000,26.750000
807018,56.000000,-24.000000,26.750000
807019,64.000000,-24.000000,26.750000
808002,-72.000000,-16.000000,26.750000
808003,-64.000000,-16.000000,26.750000
808004,-56.000000,-16.000000,26.750000
808005,-48.000000,-16.000000,26.750000
808006,-40.000000,-16.000000,26.750000
808007,-32.000000,-16.000000,26.750000
808008,-24.000000,-16.000000,26.750000
808009,-16.000000,-16.000000,26.750000
808013,16.000000,-16.000000,26.750000
808014,24.000000,-16.000000,26.750000
808015,32.000000,-16.000000,26.750000
808016,40.000000,-16.000000,26.750000
808017,48.000000,-16.000000,26.750000
808018,56.000000,-16.000000,26.750000
808019,64.000000,-16.000000,26.750000
808020,72.000000,-16.000000,26.750000
809002,-72.000000,-8.000000,26.750000
809003,-64.000000,-8.000000,26.750000
809004,-56.000000,-8.000000,26.750000
809005,-48.000000,-8.000000,26.750000
809006,-40.000000,-8.000000,26.750000
809007,-32.000000,-8.000000,26.750000
809008,-24.000000,-8.000000,26.750000
809014,24.000000,-8.000000,26.750000
809015,32.000000,-8.000000,26.750000
809016,40.000000,-8.000000,26.750000
809017,48.000000,-8.000000,26.750000
809018,56.000000,-8.000000,26.750000
809019,64.000000,-8.000000,26.750000
809020,72.000000,-8.000000,26.750000
810002,-72.000000,0.000000,26.750000
810003,-64.000000,0.000000,26.750000
810004,-56.000000,0.000000,26.750000
810005,-48.000000,0.000000,26.750000
810006,-40.000000,0.000000,26.750000
810007,-32.000000,0.000000,26.750000
810008,-24.000000,0.000000,26.750000
810014,24.000000,0.000000,26.750000
810015,32.000000,0.000000,26.750000
810016,40.000000,0.000000,26.750000
810017,48.000000,0.000000,26.750000
810018,56.000000,0.000000,26.750000
810019,64.000000,0.000000,26.750000
810020,72.000000,0.000000,26.750000
811002,-72.000000,8.000000,26.750000
811003,-64.000000,8.000000,26.750000
811004,-56.000000,8.000000,26.750000
811005,-48.000000,8.000000,26.750000
811006,-40.000000,8.000000,26.750000
811007,-32.000000,8.000000,26.750000
811008,-24.000000,8.000000,26.750000
811014,24.000000,8.000000,26.750000
811015,32.000000,8.000000,26.750000
811016,40.000000,8.000000,26.750000
811017,48.000000,8.000000,26.750000
811018,56.000000,8.000000,26.750000
811019,64.000000,8.000000,26.750000
811020,72.000000,8.000000,26.750000
812002,-72.000000,16.000000,26.750000
812003,-64.000000,16.000000,26.750000
812004,-56.000000,16.000000,26.750000
812005,-48.000000,16.000000,26.750000
812006,-40.000000,16.000000,26.750000
812007,-32.000000,16.000000,26.750000
812008,-24.000000,16.000000,26.750000
812009,-16.000000,16.000000,26.750000
812013,16.000000,16.000000,26.750000
812014,24.000000,16.000000,26.750000
812015,32.000000,16.000000,26.750000
812016,40.000000,16.000000,26.750000
812017,48.000000,16.000000,26.750000
812018,56.000000,16.000000,26.750000
812019,64.000000,16.000000,26.750000
812020,72.000000,16.000000,26.750000
813003,-64.000000,24.000000,26.750000
813004,-56.000000,24.000000,26.750000
813005,-48.000000,24.000000,26.750000
813006,-40.000000,24.000000,26.750000
813007,-32.000000,24.000000,26.750000
813008,-24.000000,24.000000,26.750000
813009,-16.000000,24.000000,26.750000
813010,-8.000000,24.000000,26.750000
813011,0.000000,24.000000,26.750000
813012,8.000000,24.000000,26.750000
813013,16.000000,24.000000,26.750000
813014,24.000000,24.000000,26.750000
813015,32.000000,24.000000,26.750000
813016,40.000000,24.000000,26.750000
813017,48.000000,24.000000,26.750000
813018,56.000000,24.000000,26.750000
813019,64.000000,24.000000,26.750000
814003,-64.000000,32.000000,26.750000
814004,-56.000000,32.000000,26.750000
814005,-48.000000,32.000000,26.750000
814006,-40.000000,32.000000,26.750000
814007,-32.000000,32.000000,26.750000
814008,-24.000000,32.000000,26.750000
814009,-16.000000,32.000000,26.750000
814010,-8.000000,32.000000,26.750000
814011,0.000000,32.000000,26.750000
814012,8.000000,32.000000,26.750000
814013,16.000000,32.000000,26.750000
814014,24.000000,32.000000,26.750000
814015,32.000000,32.000000,26.750000
814016,40.000000,32.000000,26.750000
814017,48.000000,32.000000,26.750000
814018,56.000000,32.000000,26.750000
814019,64.000000,32.000000,26.750000
815004,-56.000000,40.000000,26.750000
815005,-48.000000,40.000000,26.750000
815006,-40.000000,40.000000,26.750000
815007,-32.000000,40.000000,26.750000
815008,-24.000000,40.000000,26.750000
815009,-16.000000,40.000000,26.750000
815010,-8.000000,40.000000,26.750000
815011,0.000000,40.000000,26.750000
815012,8.000000,40.000000,26.750000
815013,16.000000,40.000000,26.750000
815014,24.000000,40.000000,26.750000
815015,32.000000,40.000000,26.750000
815016,40.000000,40.000000,26.750000
815017,48.000000,40.000000,26.750000
815018,56.000000,40.000000,26.750000
816004,-56.000000,48.000000,26.750000
816005,-48.000000,48.000000,26.750000
816006,-40.000000,48.000000,26.750000
816007,-32.000000,48.000000,26.750000
816008,-24.000000,48.000000,26.750000
816009,-16.000000,48.000000,26.750000
816010,-8.000000,48.000000,26.750000
816011,0.000000,48.000000,26.750000
816012,8.000000,48.000000,26.750000
816013,16.000000,48.000000,26.750000
816014,24.000000,48.000000,26.750000
816015,32.000000,48.000000,26.750000
816016,40.000000,48.000000,26.750000
816017,48.000000,48.000000,26.750000
816018,56.000000,48.000000,26.750000
817005,-48.000000,56.000000,26.750000
817006,-40.000000,56.000000,26.750000
817007,-32.000000,56.000000,26.750000
817008,-24.000000,56.000000,26.750000
817009,-16.000000,56.000000,26.750000
817010,-8.000000,56.000000,26.750000
817011,0.000000,56.000000,26.750000
817012,8.000000,56.000000,26.750000
817013,16.000000,56.000000,26.750000
817014,24.000000,56.000000,26.750000
817015,32.000000,56.000000,26.750000
817016,40.000000,56.000000,26.750000
817017,48.000000,56.000000,26.750000
818007,-32.000000,64.000000,26.750000
818008,-24.000000,64.000000,26.750000
818009,-16.000000,64.000000,26.750000
818010,-8.000000,64.000000,26.750000
818011,0.000000,64.000000,26.750000
818012,8.000000,64.000000,26.750000
818013,16.000000,64.000000,26.750000
818014,24.000000,64.000000,26.750000
818015,32.000000,64.000000,26.750000
819009,-16.000000,72.000000,26.750000
819010,-8.000000,72.000000,26.750000
819011,0.000000,72.000000,26.750000
819012,8.000000,72.000000,26.750000
819013,16.000000,72.000000,26.750000
901009,-16.000000,-72.000000,30.750000
901010,-8.000000,-72.000000,30.750000
901011,0.000000,-72.000000,30.750000
901012,8.000000,-72.000000,30.750000
901013,16.000000,-72.000000,30.750000
902007,-32.000000,-64.000000,30.750000
902008,-24.000000,-64.000000,30.750000
902009,-16.000000,-64.000000,30.750000
902010,-8.000000,-64.000000,30.750000
902011,0.000000,-64.000000,30.750000
902012,8.000000,-64.000000,30.750000
902013,16.000000,-64.000000,30.750000
902014,24.000000,-64.000000,30.750000
902015,32.000000,-64.000000,30.750000
903005,-48.000000,-56.000000,30.750000
903006,-40.000000,-56.000000,30.750000
903007,-32.000000,-56.000000,30.750000
903008,-24.000000,-56.000000,30.750000
903009,-16.000000,-56.000000,30.750000
903010,-8.000000,-56.000000,30.750000
903011,0.000000,-56.000000,30.750000
903012,8.000000,-56.000000,30.750000
903013,16.000000,-56.000000,30.750000
903014,24.000000,-56.000000,30.750000
903015,32.000000,-56.000000,30.750000
903016,40.000000,-56.000000,30.750000
903017,48.000000,-56.000000,30.750000
904004,-56.000000,-48.000000,30.750000
904005,-48.000000,-48.000000,30.750000
904006,-40.000000,-48.000000,30.750000
904007,-32.000000,-48.000000,30.750000
904008,-24.000000,-48.000000,30.750000
904009,-16.000000,-48.000000,30.750000
904010,-8.000000,-48.000000,30.750000
904011,0.000000,-48.000000,30.750000
904012,8.000000,-48.000000,30.750000
904013,16.000000,-48.000000,30.750000
904014,24.000000,-48.000000,30.750000
904015,32.000000,-48.000000,30.750000
904016,40.000000,-48.000000,30.750000
904017,48.000000,-48.000000,30.750000
904018,56.000000,-48.000000,30.750000
905004,-56.000000,-40.000000,30.750000
905005,-48.000000,-40.000000,30.750000
905006,-40.000000,-40.000000,30.750000
905007,-32.000000,-40.000000,30.750000
905008,-24.000000,-40.000000,30.750000
905009,-16.000000,-40.000000,30.750000
905010,-8.000000,-40.000000,30.750000
905011,0.000000,-40.000000,30.750000
905012,8.000000,-40.000000,30.750000
905013,16.000000,-40.000000,30.750000
905014,24.000000,-40.000000,30.750000
905015,32.000000,-40.000000,30.750000
905016,40.000000,-40.000000,30.750000
905017,48.000000,-40.000000,30.750000
905018,56.000000,-40.000000,30.750000
906003,-64.000000,-32.000000,30.750000
906004,-56.000000,-32.000000,30.750000
906005,-48.000000,-32.000000,30.750000
906006,-40.000000,-32.000000,30.750000
906007,-32.000000,-32.000000,30.750000
906008,-24.000000,-32.000000,30.750000
906009,-16.000000,-32.000000,30.750000
906010,-8.000000,-32.000000,30.750000
906011,0.000000,-32.000000,30.750000
906012,8.000000,-32.000000,30.750000
906013,16.000000,-32.000000,30.750000
906014,24.000000,-32.000000,30.750000
906015,32.000000,-32.000000,30.750000
906016,40.000000,-32.000000,30.750000
906017,48.000000,-32.000000,30.750000
906018,56.000000,-32.000000,30.750000
906019,64.000000,-32.000000,30.750000
907003,-64.000000,-24.000000,30.750000
907004,-56.000000,-24.000000,30.750000
907005,-48.000000,-24.000000,30.750000
907006,-40.000000,-24.000000,30.750000
907007,-32.000000,-24.000000,30.750000
907008,-24.000000,-24.000000,30.750000
907009,-16.000000,-24.000000,30.750000
907010,-8.000000,-24.000000,30.750000
907011,0.000000,-24.000000,30.750000
907012,8.000000,-24.000000,30.750000
907013,16.000000,-24.000000,30.750000
907014,24.000000,-24.000000,30.750000
907015,32.000000,-24.000000,30.750000
907016,40.000000,-24.000000,30.750000
907017,48.000000,-24.000000,30.750000
907018,56.000000,-24.000000,30.750000
907019,64.000000,-24.000000,30.750000
908002,-72.000000,-16.000000,30.750000
908003,-64.000000,-16.000000,30.750000
908004,-56.000000,-16.000000,30.750000
908005,-48.000000,-16.000000,30.750000
908006,-40.000000,-16.000000,30.750000
908007,-32.000000,-16.000000,30.750000
908008,-24.000000,-16.000000,30.750000
908009,-16.000000,-16.000000,30.750000
908013,16.000000,-16.000000,30.750000
908014,24.000000,-16.000000,30.750000
908015,32.000000,-16.000000,30.750000
908016,40.000000,-16.000000,30.750000
908017,48.000000,-16.000000,30.750000
908018,56.000000,-16.000000,30.750000
908019,64.000000,-16.000000,30.750000
908020,72.000000,-16.000000,30.750000
909002,-72.000000,-8.000000,30.750000
909003,-64.000000,-8.000000,30.750000
909004,-56.000000,-8.000000,30.750000
909005,-48.000000,-8.000000,30.750000
909006,-40.000000,-8.000000,30.750000
909007,-32.000000,-8.000000,30.750000
909008,-24.000000,-8.000000,30.750000
909014,24.000000,-8.000000,30.750000
909015,32.000000,-8.000000,30.750000
909016,40.000000,-8.000000,30.750000
909017,48.000000,-8.000000,30.750000
909018,56.000000,-8.000000,30.750000
909019,64.000000,-8.000000,30.750000
909020,72.000000,-8.000000,30.750000
910002,-72.000000,0.000000,30.750000
910003,-64.000000,0.000000,30.750000
910004,-56.000000,0.000000,30.750000
910005,-48.000000,0.000000,30.750000
910006,-40.000000,0.000000,30.750000
910007,-32.000000,0.000000,30.750000
910008,-24.000000,0.000000,30.750000
910014,24.000000,0.000000,30.750000
910015,32.000000,0.000000,30.750000
910016,40.000000,0.000000,30.750000
910017,48.000000,0.000000,30.750000
910018,56.000000,0.000000,30.750000
910019,64.000000,0.000000,30.750000
910020,72.000000,0.000000,30.750000
911002,-72.000000,8.000000,30.750000
911003,-64.000000,8.000000,30.750000
911004,-56.000000,8.000000,30.750000
911005,-48.000000,8.000000,30.750000
911006,-40.000000,8.000000,30.750000
911007,-32.000000,8.000000,30.750000
911008,-24.000000,8.000000,30.750000
911014,24.000000,8.000000,30.750000
911015,32.000000,8.000000,30.750000
911016,40.000000,8.000000,30.750000
911017,48.000000,8.000000,30.750000
911018,56.000000,8.000000,30.750000
911019,64.000000,8.000000,30.750000
911020,72.000000,8.000000,30.750000
912002,-72.000000,16.000000,30.750000
912003,-64.000000,16.000000,30.750000
912004,-56.000000,16.000000,30.750000
912005,-48.000000,16.000000,30.750000
912006,-40.000000,16.000000,30.750000
912007,-32.000000,16.000000,30.750000
912008,-24.000000,16.000000,30.750000
912009,-16.000000,16.000000,30.750000
912013,16.000000,16.000000,30.750000
912014,24.000000,16.000000,30.750000
912015,32.000000,16.000000,30.750000
912016,40.000000,16.000000,30.750000
912017,48.000000,16.000000,30.750000
912018,56.000000,16.000000,30.750000
912019,64.000000,16.000000,30.750000
912020,72.000000,16.000000,30.750000
913003,-64.000000,24.000000,30.750000
913004,-56.000000,24.000000,30.750000
913005,-48.000000,24.000000,30.750000
913006,-40.000000,24.000000,30.750000
913007,-32.000000,24.000000,30.750000
913008,-24.000000,24.000000,30.750000
913009,-16.000000,24.000000,30.750000
913010,-8.000000,24.000000,30.750000
913011,0.000000,24.000000,30.750000
913012,8.000000,24.000000,30.750000
913013,16.000000,24.000000,30.750000
913014,24.000000,24.000000,30.750000
913015,32.000000,24.000000,30.750000
913016,40.000000,24.000000,30.750000
913017,48.000000,24.000000,30.750000
913018,56.000000,24.000000,30.750000
913019,64.000000,24.000000,30.750000
914003,-64.000000,32.000000,30.750000
914004,-56.000000,32.000000,30.750000
914005,-48.000000,32.000000,30.750000
914006,-40.000000,32.000000,30.750000
914007,-32.000000,32.000000,30.750000
914008,-24.000000,32.000000,30.750000
914009,-16.000000,32.000000,30.750000
914010,-8.000000,32.000000,30.750000
914011,0.000000,32.000000,30.750000
914012,8.000000,32.000000,30.750000
914013,16.000000,32.000000,30.750000
914014,24.000000,32.000000,30.750000
914015,32.000000,32.000000,30.750000
914016,40.000000,32.000000,30.750000
914017,48.000000,32.000000,30.750000
914018,56.000000,32.000000,30.750000
914019,64.000000,32.000000,30.750000
915004,-56.000000,40.000000,30.750000
915005,-48.000000,40.000000,30.750000
915006,-40.000000,40.000000,30.750000
915007,-32.000000,40.000000,30.750000
915008,-24.000000,40.000000,30.750000
915009,-16.000000,40.000000,30.750000
915010,-8.000000,40.000000,30.750000
915011,0.000000,40.000000,30.750000
915012,8.000000,40.000000,30.750000
915013,16.000000,40.000000,30.750000
915014,24.000000,40.000000,30.750000
915015,32.000000,40.000000,30.750000
915016,40.000000,40.000000,30.750000
915017,48.000000,40.000000,30.750000
915018,56.000000,40.000000,30.750000
916004,-56.000000,48.000000,30.750000
916005,-48.000000,48.000000,30.750000
916006,-40.000000,48.000000,30.750000
916007,-32.000000,48.000000,30.750000
916008,-24.000000,48.000000,30.750000
916009,-16.000000,48.000000,30.750000
916010,-8.000000,48.000000,30.750000
916011,0.000000,48.000000,30.750000
916012,8.000000,48.000000,30.750000
916013,16.000000,48.000000,30.750000
916014,24.000000,48.000000,30.750000
916015,32.000000,48.000000,30.750000
916016,40.000000,48.000000,30.750000
916017,48.000000,48.000000,30.750000
916018,56.000000,48.000000,30.750000
917005,-48.000000,56.000000,30.750000
917006,-40.000000,56.000000,30.750000
917007,-32.000000,56.000000,30.750000
917008,-24.000000,56.000000,30.750000
917009,-16.000000,56.000000,30.750000
917010,-8.000000,56.000000,30.750000
917011,0.000000,56.000000,30.750000
917012,8.000000,56.000000,30.750000
917013,16.000000,56.000000,30.750000
917014,24.000000,56.000000,30.750000
917015,32.000000,56.000000,30.750000
917016,40.000000,56.000000,30.750000
917017,48.000000,56.000000,30.750000
918007,-32.000000,64.000000,30.750000
918008,-24.000000,64.000000,30.750000
918009,-16.000000,64.000000,30.750000
918010,-8.000000,64.000000,30.750000
918011,0.000000,64.000000,30.750000
918012,8.000000,64.000000,30.750000
918013,16.000000,64.000000,30.750000
918014,24.000000,64.000000,30.750000
918015,32.000000,64.000000,30.750000
919009,-16.000000,72.000000,30.750000
919010,-8.000000,72.000000,30.750000
919011,0.000000,72.000000,30.750000
919012,8.000000,72.000000,30.750000
919013,16.000000,72.000000,30.750000
900000,0.0,0.0,30.75
900100,70.000000,70.000000,10.750000
900101,70.000000,-70.000000,10.750000
900102,-70.000000,70.000000,10.750000
900103,-70.000000,-70.000000,10.750000
900200,57.742471,23.917715,22.750000
900201,23.917715,57.742471,22.750000
900202,-23.917715,57.742471,22.750000
900203,-57.742471,23.917715,22.750000
900204,-57.742471,-23.917715,22.750000
900205,-23.917715,-57.742471,22.750000
900206,23.917715,-57.742471,22.750000
900207,57.742471,-23.917715,22.750000
*ELEMENT,TYPE=C3D8R,ELSET=EALL
1,1,2,1002,1001,100001,100002,101002,101001
2,2,3,1003,1002,100002,100003,101003,101002
3,3,4,1004,1003,100003,100004,101004,101003
4,4,5,1005,1004,100004,100005,101005,101004
5,5,6,1006,1005,100005,100006,101006,101005
6,6,7,1007,1006,100006,100007,101007,101006
7,7,8,1008,1007,100007,100008,101008,101007
8,8,9,1009,1008,100008,100009,101009,101008
9,9,10,1010,1009,100009,100010,101010,101009
10,10,11,1011,1010,100010,100011,101011,101010
11,11,12,1012,1011,100011,100012,101012,101011
12,12,13,1013,1012,100012,100013,101013,101012
13,13,14,1014,1013,100013,100014,101014,101013
14,14,15,1015,1014,100014,100015,101015,101014
15,15,16,1016,1015,100015,100016,101016,101015
16,16,17,1017,1016,100016,100017,101017,101016
17,17,18,1018,1017,100017,100018,101018,101017
18,18,19,1019,1018,100018,100019,101019,101018
19,19,20,1020,1019,100019,100020,101020,101019
20,20,21,1021,1020,100020,100021,101021,101020
21,1001,1002,2002,2001,101001,101002,102002,102001
22,1002,1003,2003,2002,101002,101003,102003,102002
23,1003,1004,2004,2003,101003,101004,102004,102003
24,1004,1005,2005,2004,101004,101005,102005,102004
25,1005,1006,2006,2005,101005,101006,102006,102005
26,1006,1007,2007,2006,101006,101007,102007,102006
27,1007,1008,2008,2007,101007,101008,102008,102007
28,1008,1009,2009,2008,101008,101009,102009,102008
29,1009,1010,2010,2009,101009,101010,102010,102009
30,1010,1011,2011,2010,101010,101011,102011,102010
31,1011,1012,2012,2011,101011,101012,102012,102011
32,1012,1013,2013,2012,101012,101013,102013,102012
33,1013,1014,2014,2013,101013,101014,102014,102013
34,1014,1015,2015,2014,101014,101015,102015,102014
35,1015,1016,2016,2015,101015,101016,102016,102015
36,1016,1017,2017,2016,101016,101017,102017,102016
37,1017,1018,2018,2017,101017,101018,102018,102017
38,1018,1019,2019,2018,101018,101019,102019,102018
39,1019,1020,2020,2019,101019,101020,102020,102019
40,1020,1021,2021,2020,101020,101021,102021,102020
41,2001,2002,3002,3001,102001,102002,103002,103001
42,2002,2003,3003,3002,102002,102003,103003,103002
43,2003,2004,3004,3003,102003,102004,103004,103003
44,2004,2005,3005,3004,102004,102005,103005,103004
45,2005,2006,3006,3005,102005,102006,103006,103005
46,2006,2007,3007,3006,102006,102007,103007,103006
47,2007,2008,3008,3007,102007,102008,103008,103007
48,2008,2009,3009,3008,102008,102009,103009,103008
49,2009,2010,3010,3009,102009,102010,103010,103009
50,2010,2011,3011,3010,102010,102011,103011,103010
51,2011,2012,3012,3011,102011,102012,103012,103011
52,2012,2013,3013,3012,102012,102013,103013,103012
53,2013,2014,3014,3013,102013,102014,103014,103013
54,2014,2015,3015,3014,102014,102015,103015,103014
55,2015,2016,3016,3015,102015,102016,103016,103015
56,2016,2017,3017,3016,102016,102017,103017,103016
57,2017,2018,3018,3017,102017,102018,103018,103017
58,2018,2019,3019,3018,102018,102019,103019,103018
59,2019,2020,3020,3019,102019,102020,103020,103019
60,2020,2021,3021,3020,102020,102021,103021,103020
61,3001,3002,4002,4001,103001,103002,104002,104001
62,3002,3003,4003,4002,103002,103003,104003,104002
63,3003,3004,4004,4003,103003,103004,104004,104003
64,3004,3005,4005,4004,103004,103005,104005,104004
65,3005,3006,4006,4005,103005,103006,104006,104005
66,3006,3007,4007,4006,103006,103007,104007,104006
67,3007,3008,4008,4007,103007,103008,104008,104007
68,3008,3009,4009,4008,103008,103009,104009,104008
69,3009,3010,4010,4009,103009,103010,104010,104009
70,3010,3011,4011,4010,103010,103011,104011,104010
71,3011,3012,4012,4011,103011,103012,104012,104011
72,3012,3013,4013,4012,103012,103013,104013,104012
73,3013,3014,4014,4013,103013,103014,104014,104013
74,3014,3015,4015,4014,103014,103015,104015,104014
75,3015,3016,4016,4015,103015,103016,104016,104015
76,3016,3017,4017,4016,103016,103017,104017,104016
77,3017,3018,4018,4017,103017,103018,104018,104017
78,3018,3019,4019,4018,103018,103019,104019,104018
79,3019,3020,4020,4019,103019,103020,104020,104019
80,3020,3021,4021,4020,103020,103021,104021,104020
81,4001,4002,5002,5001,104001,104002,105002,105001
82,4002,4003,5003,5002,104002,104003,105003,105002
83,4003,4004,5004,5003,104003,104004,105004,105003
84,4004,4005,5005,5004,104004,104005,105005,105004
85,4005,4006,5006,5005,104005,104006,105006,105005
86,4006,4007,5007,5006,104006,104007,105007,105006
87,4007,4008,5008,5007,104007,104008,105008,105007
88,4008,4009,5009,5008,104008,104009,105009,105008
89,4009,4010,5010,5009,104009,104010,105010,105009
90,4010,4011,5011,5010,104010,104011,105011,105010
91,4011,4012,5012,5011,104011,104012,105012,105011
92,4012,4013,5013,5012,104012,104013,105013,105012
93,4013,4014,5014,5013,104013,104014,105014,105013
94,4014,4015,5015,5014,104014,104015,105015,105014
95,4015,4016,5016,5015,104015,104016,105016,105015
96,4016,4017,5017,5016,104016,104017,105017,105016
97,4017,4018,5018,5017,104017,104018,105018,105017
98,4018,4019,5019,5018,104018,104019,105019,105018
99,4019,4020,5020,5019,104019,104020,105020,105019
100,4020,4021,5021,5020,104020,104021,105021,105020
101,5001,5002,6002,6001,105001,105002,106002,106001
102,5002,5003,6003,6002,105002,105003,106003,106002
103,5003,5004,6004,6003,105003,105004,106004,106003
104,5004,5005,6005,6004,105004,105005,106005,106004
105,5005,5006,6006,6005,105005,105006,106006,106005
106,5006,5007,6007,6006,105006,105007,106007,106006
107,5007,5008,6008,6007,105007,105008,106008,106007
108,5008,5009,6009,6008,105008,105009,106009,106008
109,5009,5010,6010,6009,105009,105010,106010,106009
110,5010,5011,6011,6010,105010,105011,106011,106010
111,5011,5012,6012,6011,105011,105012,106012,106011
112,5012,5013,6013,6012,105012,105013,106013,106012
113,5013,5014,6014,6013,105013,105014,106014,106013
114,5014,5015,6015,6014,105014,105015,106015,106014
115,5015,5016,6016,6015,105015,105016,106016,106015
116,5016,5017,6017,6016,105016,105017,106017,106016
117,5017,5018,6018,6017,105017,105018,106018,106017
118,5018,5019,6019,6018,105018,105019,106019,106018
119,5019,5020,6020,6019,105019,105020,106020,106019
120,5020,5021,6021,6020,105020,105021,106021,106020
121,6001,6002,7002,7001,106001,106002,107002,107001
122,6002,6003,7003,7002,106002,106003,107003,107002
123,6003,6004,7004,7003,106003,106004,107004,107003
124,6004,6005,7005,7004,106004,106005,107005,107004
125,6005,6006,7006,7005,106005,106006,107006,107005
126,6006,6007,7007,7006,106006,106007,107007,107006
127,6007,6008,7008,7007,106007,106008,107008,107007
128,6008,6009,7009,7008,106008,106009,107009,107008
129,6009,6010,7010,7009,106009,106010,107010,107009
130,6010,6011,7011,7010,106010,106011,107011,107010
131,6011,6012,7012,7011,106011,106012,107012,107011
132,6012,6013,7013,7012,106012,106013,107013,107012
133,6013,6014,7014,7013,106013,106014,107014,107013
134,6014,6015,7015,7014,106014,106015,107015,107014
135,6015,6016,7016,7015,106015,106016,107016,107015
136,6016,6017,7017,7016,106016,106017,107017,107016
137,6017,6018,7018,7017,106017,106018,107018,107017
138,6018,6019,7019,7018,106018,106019,107019,107018
139,6019,6020,7020,7019,106019,106020,107020,107019
140,6020,6021,7021,7020,106020,106021,107021,107020
141,7001,7002,8002,8001,107001,107002,108002,108001
142,7002,7003,8003,8002,107002,107003,108003,108002
143,7003,7004,8004,8003,107003,107004,108004,108003
144,7004,7005,8005,8004,107004,107005,108005,108004
145,7005,7006,8006,8005,107005,107006,108006,108005
146,7006,7007,8007,8006,107006,107007,108007,108006
147,7007,7008,8008,8007,107007,107008,108008,108007
148,7008,7009,8009,8008,107008,107009,108009,108008
149,7013,7014,8014,8013,107013,107014,108014,108013
150,7014,7015,8015,8014,107014,107015,108015,108014
151,7015,7016,8016,8015,107015,107016,108016,108015
152,7016,7017,8017,8016,107016,107017,108017,108016
153,7017,7018,8018,8017,107017,107018,108018,108017
154,7018,7019,8019,8018,107018,107019,108019,108018
155,7019,7020,8020,8019,107019,107020,108020,108019
156,7020,7021,8021,8020,107020,107021,108021,108020
157,8001,8002,9002,9001,108001,108002,109002,109001
158,8002,8003,9003,9002,108002,108003,109003,109002
159,8003,8004,9004,9003,108003,108004,109004,109003
160,8004,8005,9005,9004,108004,108005,109005,109004
161,8005,8006,9006,9005,108005,108006,109006,109005
162,8006,8007,9007,9006,108006,108007,109007,109006
163,8007,8008,9008,9007,108007,108008,109008,109007
164,8014,8015,9015,9014,108014,108015,109015,109014
165,8015,8016,9016,9015,108015,108016,109016,109015
166,8016,8017,9017,9016,108016,108017,109017,109016
167,8017,8018,9018,9017,108017,108018,109018,109017
168,8018,8019,9019,9018,108018,108019,109019,109018
169,8019,8020,9020,9019,108019,108020,109020,109019
170,8020,8021,9021,9020,108020,108021,109021,109020
171,9001,9002,10002,10001,109001,109002,110002,110001
172,9002,9003,10003,10002,109002,109003,110003,110002
173,9003,9004,10004,10003,109003,109004,110004,110003
174,9004,9005,10005,10004,109004,109005,110005,110004
175,9005,9006,10006,10005,109005,109006,110006,110005
176,9006,9007,10007,10006,109006,109007,110007,110006
177,9007,9008,10008,10007,109007,109008,110008,110007
178,9014,9015,10015,10014,109014,109015,110015,110014
179,9015,9016,10016,10015,109015,109016,110016,110015
180,9016,9017,10017,10016,109016,109017,110017,110016
181,9017,9018,10018,10017,109017,109018,110018,110017
182,9018,9019,10019,10018,109018,109019,110019,110018
183,9019,9020,10020,10019,109019,109020,110020,110019
184,9020,9021,10021,10020,109020,109021,110021,110020
185,10001,10002,11002,11001,110001,110002,111002,111001
186,10002,10003,11003,11002,110002,110003,111003,111002
187,10003,10004,11004,11003,110003,110004,111004,111003
188,10004,10005,11005,11004,110004,110005,111005,111004
189,10005,10006,11006,11005,110005,110006,111006,111005
190,10006,10007,11007,11006,110006,110007,111007,111006
191,10007,10008,11008,11007,110007,110008,111008,111007
192,10014,10015,11015,11014,110014,110015,111015,111014
193,10015,10016,11016,11015,110015,110016,111016,111015
194,10016,10017,11017,11016,110016,110017,111017,111016
195,10017,10018,11018,11017,110017,110018,111018,111017
196,10018,10019,11019,11018,110018,110019,111019,111018
197,10019,10020,11020,11019,110019,110020,111020,111019
198,10020,10021,11021,11020,110020,110021,111021,111020
199,11001,11002,12002,12001,111001,111002,112002,112001
200,11002,11003,12003,12002,111002,111003,112003,112002
201,11003,11004,12004,12003,111003,111004,112004,112003
202,11004,11005,12005,12004,111004,111005,112005,112004
203,11005,11006,12006,12005,111005,111006,112006,112005
204,11006,11007,12007,12006,111006,111007,112007,112006
205,11007,11008,12008,12007,111007,111008,112008,112007
206,11014,11015,12015,12014,111014,111015,112015,112014
207,11015,11016,12016,12015,111015,111016,112016,112015
208,11016,11017,12017,12016,111016,111017,112017,112016
209,11017,11018,12018,12017,111017,111018,112018,112017
210,11018,11019,12019,12018,111018,111019,112019,112018
211,11019,11020,12020,12019,111019,111020,112020,112019
212,11020,11021,12021,12020,111020,111021,112021,112020
213,12001,12002,13002,13001,112001,112002,113002,113001
214,12002,12003,13003,13002,112002,112003,113003,113002
215,12003,12004,13004,13003,112003,112004,113004,113003
216,12004,12005,13005,13004,112004,112005,113005,113004
217,12005,12006,13006,13005,112005,112006,113006,113005
218,12006,12007,13007,13006,112006,112007,113007,113006
219,12007,12008,13008,13007,112007,112008,113008,113007
220,12008,12009,13009,13008,112008,112009,113009,113008
221,12013,12014,13014,13013,112013,112014,113014,113013
222,12014,12015,13015,13014,112014,112015,113015,113014
223,12015,12016,13016,13015,112015,112016,113016,113015
224,12016,12017,13017,13016,112016,112017,113017,113016
225,12017,12018,13018,13017,112017,112018,113018,113017
226,12018,12019,13019,13018,112018,112019,113019,113018
227,12019,12020,13020,13019,112019,112020,113020,113019
228,12020,12021,13021,13020,112020,112021,113021,113020
229,13001,13002,14002,14001,113001,113002,114002,114001
230,13002,13003,14003,14002,113002,113003,114003,114002
231,13003,13004,14004,14003,113003,113004,114004,114003
232,13004,13005,14005,14004,113004,113005,114005,114004
233,13005,13006,14006,14005,113005,113006,114006,114005
234,13006,13007,14007,14006,113006,113007,114007,114006
235,13007,13008,14008,14007,113007,113008,114008,114007
236,13008,13009,14009,14008,113008,113009,114009,114008
237,13009,13010,14010,14009,113009,113010,114010,114009
238,13010,13011,14011,14010,113010,113011,114011,114010
239,13011,13012,14012,14011,113011,113012,114012,114011
240,13012,13013,14013,14012,113012,113013,114013,114012
241,13013,13014,14014,14013,113013,113014,114014,114013
242,13014,13015,14015,14014,113014,113015,114015,114014
243,13015,13016,14016,14015,113015,113016,114016,114015
244,13016,13017,14017,14016,113016,113017,114017,114016
245,13017,13018,14018,14017,113017,113018,114018,114017
246,13018,13019,14019,14018,113018,113019,114019,114018
247,13019,13020,14020,14019,113019,113020,114020,114019
248,13020,13021,14021,14020,113020,113021,114021,114020
249,14001,14002,15002,15001,114001,114002,115002,115001
250,14002,14003,15003,15002,114002,114003,115003,115002
251,14003,14004,15004,15003,114003,114004,115004,115003
252,14004,14005,15005,15004,114004,114005,115005,115004
253,14005,14006,15006,15005,114005,114006,115006,115005
254,14006,14007,15007,15006,114006,114007,115007,115006
255,14007,14008,15008,15007,114007,114008,115008,115007
256,14008,14009,15009,15008,114008,114009,115009,115008
257,14009,14010,15010,15009,114009,114010,115010,115009
258,14010,14011,15011,15010,114010,114011,115011,115010
259,14011,14012,15012,15011,114011,114012,115012,115011
260,14012,14013,15013,15012,114012,114013,115013,115012
261,14013,14014,15014,15013,114013,114014,115014,115013
262,14014,14015,15015,15014,114014,114015,115015,115014
263,14015,14016,15016,15015,114015,114016,115016,115015
264,14016,14017,15017,15016,114016,114017,115017,115016
265,14017,14018,15018,15017,114017,114018,115018,115017
266,14018,14019,15019,15018,114018,114019,115019,115018
267,14019,14020,15020,15019,114019,114020,115020,115019
268,14020,14021,15021,15020,114020,114021,115021,115020
269,15001,15002,16002,16001,115001,115002,116002,116001
270,15002,15003,16003,16002,115002,115003,116003,116002
271,15003,15004,16004,16003,115003,115004,116004,116003
272,15004,15005,16005,16004,115004,115005,116005,116004
273,15005,15006,16006,16005,115005,115006,116006,116005
274,15006,15007,16007,16006,115006,115007,116007,116006
275,15007,15008,16008,16007,115007,115008,116008,116007
276,15008,15009,16009,16008,115008,115009,116009,116008
277,15009,15010,16010,16009,115009,115010,116010,116009
278,15010,15011,16011,16010,115010,115011,116011,116010
279,15011,15012,16012,16011,115011,115012,116012,116011
280,15012,15013,16013,16012,115012,115013,116013,116012
281,15013,15014,16014,16013,115013,115014,116014,116013
282,15014,15015,16015,16014,115014,115015,116015,116014
283,15015,15016,16016,16015,115015,115016,116016,116015
284,15016,15017,16017,16016,115016,115017,116017,116016
285,15017,15018,16018,16017,115017,115018,116018,116017
286,15018,15019,16019,16018,115018,115019,116019,116018
287,15019,15020,16020,16019,115019,115020,116020,116019
288,15020,15021,16021,16020,115020,115021,116021,116020
289,16001,16002,17002,17001,116001,116002,117002,117001
290,16002,16003,17003,17002,116002,116003,117003,117002
291,16003,16004,17004,17003,116003,116004,117004,117003
292,16004,16005,17005,17004,116004,116005,117005,117004
293,16005,16006,17006,17005,116005,116006,117006,117005
294,16006,16007,17007,17006,116006,116007,117007,117006
295,16007,16008,17008,17007,116007,116008,117008,117007
296,16008,16009,17009,17008,116008,116009,117009,117008
297,16009,16010,17010,17009,116009,116010,117010,117009
298,16010,16011,17011,17010,116010,116011,117011,117010
299,16011,16012,17012,17011,116011,116012,117012,117011
300,16012,16013,17013,17012,116012,116013,117013,117012
301,16013,16014,17014,17013,116013,116014,117014,117013
302,16014,16015,17015,17014,116014,116015,117015,117014
303,16015,16016,17016,17015,116015,116016,117016,117015
304,16016,16017,17017,17016,116016,116017,117017,117016
305,16017,16018,17018,17017,116017,116018,117018,117017
306,16018,16019,17019,17018,116018,116019,117019,117018
307,16019,16020,17020,17019,116019,116020,117020,117019
308,16020,16021,17021,17020,116020,116021,117021,117020
309,17001,17002,18002,18001,117001,117002,118002,118001
310,17002,17003,18003,18002,117002,117003,118003,118002
311,17003,17004,18004,18003,117003,117004,118004,118003
312,17004,17005,18005,18004,117004,117005,118005,118004
313,17005,17006,18006,18005,117005,117006,118006,118005
314,17006,17007,18007,18006,117006,117007,118007,118006
315,17007,17008,18008,18007,117007,117008,118008,118007
316,17008,17009,18009,18008,117008,117009,118009,118008
317,17009,17010,18010,18009,117009,117010,118010,118009
318,17010,17011,18011,18010,117010,117011,118011,118010
319,17011,17012,18012,18011,117011,117012,118012,118011
320,17012,17013,18013,18012,117012,117013,118013,118012
321,17013,17014,18014,18013,117013,117014,118014,118013
322,17014,17015,18015,18014,117014,117015,118015,118014
323,17015,17016,18016,18015,117015,117016,118016,118015
324,17016,17017,18017,18016,117016,117017,118017,118016
325,17017,17018,18018,18017,117017,117018,118018,118017
326,17018,17019,18019,18018,117018,117019,118019,118018
327,17019,17020,18020,18019,117019,117020,118020,118019
328,17020,17021,18021,18020,117020,117021,118021,118020
329,18001,18002,19002,19001,118001,118002,119002,119001
330,18002,18003,19003,19002,118002,118003,119003,119002
331,18003,18004,19004,19003,118003,118004,119004,119003
332,18004,18005,19005,19004,118004,118005,119005,119004
333,18005,18006,19006,19005,118005,118006,119006,119005
334,18006,18007,19007,19006,118006,118007,119007,119006
335,18007,18008,19008,19007,118007,118008,119008,119007
336,18008,18009,19009,19008,118008,118009,119009,119008
337,18009,18010,19010,19009,118009,118010,119010,119009
338,18010,18011,19011,19010,118010,118011,119011,119010
339,18011,18012,19012,19011,118011,118012,119012,119011
340,18012,18013,19013,19012,118012,118013,119013,119012
341,18013,18014,19014,19013,118013,118014,119014,119013
342,18014,18015,19015,19014,118014,118015,119015,119014
343,18015,18016,19016,19015,118015,118016,119016,119015
344,18016,18017,19017,19016,118016,118017,119017,119016
345,18017,18018,19018,19017,118017,118018,119018,119017
346,18018,18019,19019,19018,118018,118019,119019,119018
347,18019,18020,19020,19019,118019,118020,119020,119019
348,18020,18021,19021,19020,118020,118021,119021,119020
349,19001,19002,20002,20001,119001,119002,120002,120001
350,19002,19003,20003,20002,119002,119003,120003,120002
351,19003,19004,20004,20003,119003,119004,120004,120003
352,19004,19005,20005,20004,119004,119005,120005,120004
353,19005,19006,20006,20005,119005,119006,120006,120005
354,19006,19007,20007,20006,119006,119007,120007,120006
355,19007,19008,20008,20007,119007,119008,120008,120007
356,19008,19009,20009,20008,119008,119009,120009,120008
357,19009,19010,20010,20009,119009,119010,120010,120009
358,19010,19011,20011,20010,119010,119011,120011,120010
359,19011,19012,20012,20011,119011,119012,120012,120011
360,19012,19013,20013,20012,119012,119013,120013,120012
361,19013,19014,20014,20013,119013,119014,120014,120013
362,19014,19015,20015,20014,119014,119015,120015,120014
363,19015,19016,20016,20015,119015,119016,120016,120015
364,19016,19017,20017,20016,119016,119017,120017,120016
365,19017,19018,20018,20017,119017,119018,120018,120017
366,19018,19019,20019,20018,119018,119019,120019,120018
367,19019,19020,20020,20019,119019,119020,120020,120019
368,19020,19021,20021,20020,119020,119021,120021,120020
369,100001,100002,101002,101001,200001,200002,201002,201001
370,100002,100003,101003,101002,200002,200003,201003,201002
371,100003,100004,101004,101003,200003,200004,201004,201003
372,100004,100005,101005,101004,200004,200005,201005,201004
373,100005,100006,101006,101005,200005,200006,201006,201005
374,100006,100007,101007,101006,200006,200007,201007,201006
375,100007,100008,101008,101007,200007,200008,201008,201007
376,100008,100009,101009,101008,200008,200009,201009,201008
377,100009,100010,101010,101009,200009,200010,201010,201009
378,100010,100011,101011,101010,200010,200011,201011,201010
379,100011,100012,101012,101011,200011,200012,201012,201011
380,100012,100013,101013,101012,200012,200013,201013,201012
381,100013,100014,101014,101013,200013,200014,201014,201013
382,100014,100015,101015,101014,200014,200015,201015,201014
383,100015,100016,101016,101015,200015,200016,201016,201015
384,100016,100017,101017,101016,200016,200017,201017,201016
385,100017,100018,101018,101017,200017,200018,201018,201017
386,100018,100019,101019,101018,200018,200019,201019,201018
387,100019,100020,101020,101019,200019,200020,201020,201019
388,100020,100021,101021,101020,200020,200021,201021,201020
389,101001,101002,102002,102001,201001,201002,202002,202001
390,101002,101003,102003,102002,201002,201003,202003,202002
391,101003,101004,102004,102003,201003,201004,202004,202003
392,101004,101005,102005,102004,201004,201005,202005,202004
393,101005,101006,102006,102005,201005,201006,202006,202005
394,101006,101007,102007,102006,201006,201007,202007,202006
395,101007,101008,102008,102007,201007,201008,202008,202007
396,101008,101009,102009,102008,201008,201009,202009,202008
397,101009,101010,102010,102009,201009,201010,202010,202009
398,101010,101011,102011,102010,201010,201011,202011,202010
399,101011,101012,102012,102011,201011,201012,202012,202011
400,101012,101013,102013,102012,201012,201013,202013,202012
401,101013,101014,102014,102013,201013,201014,202014,202013
402,101014,101015,102015,102014,201014,201015,202015,202014
403,101015,101016,102016,102015,201015,201016,202016,202015
404,101016,101017,102017,102016,201016,201017,202017,202016
405,101017,101018,102018,102017,201017,201018,202018,202017
406,101018,101019,102019,102018,201018,201019,202019,202018
407,101019,101020,102020,102019,201019,201020,202020,202019
408,101020,101021,102021,102020,201020,201021,202021,202020
409,102001,102002,103002,103001,202001,202002,203002,203001
410,102002,102003,103003,103002,202002,202003,203003,203002
411,102003,102004,103004,103003,202003,202004,203004,203003
412,102004,102005,103005,103004,202004,202005,203005,203004
413,102005,102006,103006,103005,202005,202006,203006,203005
414,102006,102007,103007,103006,202006,202007,203007,203006
415,102007,102008,103008,103007,202007,202008,203008,203007
416,102008,102009,103009,103008,202008,202009,203009,203008
417,102009,102010,103010,103009,202009,202010,203010,203009
418,102010,102011,103011,103010,202010,202011,203011,203010
419,102011,102012,103012,103011,202011,202012,203012,203011
420,102012,102013,103013,103012,202012,202013,203013,203012
421,102013,102014,103014,103013,202013,202014,203014,203013
422,102014,102015,103015,103014,202014,202015,203015,203014
423,102015,102016,103016,103015,202015,202016,203016,203015
424,102016,102017,103017,103016,202016,202017,203017,203016
425,102017,102018,103018,103017,202017,202018,203018,203017
426,102018,102019,103019,103018,202018,202019,203019,203018
427,102019,102020,103020,103019,202019,202020,203020,203019
428,102020,102021,103021,103020,202020,202021,203021,203020
429,103001,103002,104002,104001,203001,203002,204002,204001
430,103002,103003,104003,104002,203002,203003,204003,204002
431,103003,103004,104004,104003,203003,203004,204004,204003
432,103004,103005,104005,104004,203004,203005,204005,204004
433,103005,103006,104006,104005,203005,203006,204006,204005
434,103006,103007,104007,104006,203006,203007,204007,204006
435,103007,103008,104008,104007,203007,203008,204008,204007
436,103008,103009,104009,104008,203008,203009,204009,204008
437,103009,103010,104010,104009,203009,203010,204010,204009
438,103010,103011,104011,104010,203010,203011,204011,204010
439,103011,103012,104012,104011,203011,203012,204012,204011
440,103012,103013,104013,104012,203012,203013,204013,204012
441,103013,103014,104014,104013,203013,203014,204014,204013
442,103014,103015,104015,104014,203014,203015,204015,204014
443,103015,103016,104016,104015,203015,203016,204016,204015
444,103016,103017,104017,104016,203016,203017,204017,204016
445,103017,103018,104018,104017,203017,203018,204018,204017
446,103018,103019,104019,104018,203018,203019,204019,204018
447,103019,103020,104020,104019,203019,203020,204020,204019
448,103020,103021,104021,104020,203020,203021,204021,204020
449,104001,104002,105002,105001,204001,204002,205002,205001
450,104002,104003,105003,105002,204002,204003,205003,205002
451,104003,104004,105004,105003,204003,204004,205004,205003
452,104004,104005,105005,105004,204004,204005,205005,205004
453,104005,104006,105006,105005,204005,204006,205006,205005
454,104006,104007,105007,105006,204006,204007,205007,205006
455,104007,104008,105008,105007,204007,204008,205008,205007
456,104008,104009,105009,105008,204008,204009,205009,205008
457,104009,104010,105010,105009,204009,204010,205010,205009
458,104010,104011,105011,105010,204010,204011,205011,205010
459,104011,104012,105012,105011,204011,204012,205012,205011
460,104012,104013,105013,105012,204012,204013,205013,205012
461,104013,104014,105014,105013,204013,204014,205014,205013
462,104014,104015,105015,105014,204014,204015,205015,205014
463,104015,104016,105016,105015,204015,204016,205016,205015
464,104016,104017,105017,105016,204016,204017,205017,205016
465,104017,104018,105018,105017,204017,204018,205018,205017
466,104018,104019,105019,105018,204018,204019,205019,205018
467,104019,104020,105020,105019,204019,204020,205020,205019
468,104020,104021,105021,105020,204020,204021,205021,205020
469,105001,105002,106002,106001,205001,205002,206002,206001
470,105002,105003,106003,106002,205002,205003,206003,206002
471,105003,105004,106004,106003,205003,205004,206004,206003
472,105004,105005,106005,106004,205004,205005,206005,206004
473,105005,105006,106006,106005,205005,205006,206006,206005
474,105006,105007,106007,106006,205006,205007,206007,206006
475,105007,105008,106008,106007,205007,205008,206008,206007
476,105008,105009,106009,106008,205008,205009,206009,206008
477,105009,105010,106010,106009,205009,205010,206010,206009
478,105010,105011,106011,106010,205010,205011,206011,206010
479,105011,105012,106012,106011,205011,205012,206012,206011
480,105012,105013,106013,106012,205012,205013,206013,206012
481,105013,105014,106014,106013,205013,205014,206014,206013
482,105014,105015,106015,106014,205014,205015,206015,206014
483,105015,105016,106016,106015,205015,205016,206016,206015
484,105016,105017,106017,106016,205016,205017,206017,206016
485,105017,105018,106018,106017,205017,205018,206018,206017
486,105018,105019,106019,106018,205018,205019,206019,206018
487,105019,105020,106020,106019,205019,205020,206020,206019
488,105020,105021,106021,106020,205020,205021,206021,206020
489,106001,106002,107002,107001,206001,206002,207002,207001
490,106002,106003,107003,107002,206002,206003,207003,207002
491,106003,106004,107004,107003,206003,206004,207004,207003
492,106004,106005,107005,107004,206004,206005,207005,207004
493,106005,106006,107006,107005,206005,206006,207006,207005
494,106006,106007,107007,107006,206006,206007,207007,207006
495,106007,106008,107008,107007,206007,206008,207008,207007
496,106008,106009,107009,107008,206008,206009,207009,207008
497,106009,106010,107010,107009,206009,206010,207010,207009
498,106010,106011,107011,107010,206010,206011,207011,207010
499,106011,106012,107012,107011,206011,206012,207012,207011
500,106012,106013,107013,107012,206012,206013,207013,207012
501,106013,106014,107014,107013,206013,206014,207014,207013
502,106014,106015,107015,107014,206014,206015,207015,207014
503,106015,106016,107016,107015,206015,206016,207016,207015
504,106016,106017,107017,107016,206016,206017,207017,207016
505,106017,106018,107018,107017,206017,206018,207018,207017
506,106018,106019,107019,107018,206018,206019,207019,207018
507,106019,106020,107020,107019,206019,206020,207020,207019
508,106020,106021,107021,107020,206020,206021,207021,207020
509,107001,107002,108002,108001,207001,207002,208002,208001
510,107002,107003,108003,108002,207002,207003,208003,208002
511,107003,107004,108004,108003,207003,207004,208004,208003
512,107004,107005,108005,108004,207004,207005,208005,208004
513,107005,107006,108006,108005,207005,207006,208006,208005
514,107006,107007,108007,108006,207006,207007,208007,208006
515,107007,107008,108008,108007,207007,207008,208008,208007
516,107008,107009,108009,108008,207008,207009,208009,208008
517,107013,107014,108014,108013,207013,207014,208014,208013
518,107014,107015,108015,108014,207014,207015,208015,208014
519,107015,107016,108016,108015,207015,207016,208016,208015
520,107016,107017,108017,108016,207016,207017,208017,208016
521,107017,107018,108018,108017,207017,207018,208018,208017
522,107018,107019,108019,108018,207018,207019,208019,208018
523,107019,107020,108020,108019,207019,207020,208020,208019
524,107020,107021,108021,108020,207020,207021,208021,208020
525,108001,108002,109002,109001,208001,208002,209002,209001
526,108002,108003,109003,109002,208002,208003,209003,209002
527,108003,108004,109004,109003,208003,208004,209004,209003
528,108004,108005,109005,109004,208004,208005,209005,209004
529,108005,108006,109006,109005,208005,208006,209006,209005
530,108006,108007,109007,109006,208006,208007,209007,209006
531,108007,108008,109008,109007,208007,208008,209008,209007
532,108014,108015,109015,109014,208014,208015,209015,209014
533,108015,108016,109016,109015,208015,208016,209016,209015
534,108016,108017,109017,109016,208016,208017,209017,209016
535,108017,108018,109018,109017,208017,208018,209018,209017
536,108018,108019,109019,109018,208018,208019,209019,209018
537,108019,108020,109020,109019,208019,208020,209020,209019
538,108020,108021,109021,109020,208020,208021,209021,209020
539,109001,109002,110002,110001,209001,209002,210002,210001
540,109002,109003,110003,110002,209002,209003,210003,210002
541,109003,109004,110004,110003,209003,209004,210004,210003
542,109004,109005,110005,110004,209004,209005,210005,210004
543,109005,109006,110006,110005,209005,209006,210006,210005
544,109006,109007,110007,110006,209006,209007,210007,210006
545,109007,109008,110008,110007,209007,209008,210008,210007
546,109014,109015,110015,110014,209014,209015,210015,210014
547,109015,109016,110016,110015,209015,209016,210016,210015
548,109016,109017,110017,110016,209016,209017,210017,210016
549,109017,109018,110018,110017,209017,209018,210018,210017
550,109018,109019,110019,110018,209018,209019,210019,210018
551,109019,109020,110020,110019,209019,209020,210020,210019
552,109020,109021,110021,110020,209020,209021,210021,210020
553,110001,110002,111002,111001,210001,210002,211002,211001
554,110002,110003,111003,111002,210002,210003,211003,211002
555,110003,110004,111004,111003,210003,210004,211004,211003
556,110004,110005,111005,111004,210004,210005,211005,211004
557,110005,110006,111006,111005,210005,210006,211006,211005
558,110006,110007,111007,111006,210006,210007,211007,211006
559,110007,110008,111008,111007,210007,210008,211008,211007
560,110014,110015,111015,111014,210014,210015,211015,211014
561,110015,110016,111016,111015,210015,210016,211016,211015
562,110016,110017,111017,111016,210016,210017,211017,211016
563,110017,110018,111018,111017,210017,210018,211018,211017
564,110018,110019,111019,111018,210018,210019,211019,211018
565,110019,110020,111020,111019,210019,210020,211020,211019
566,110020,110021,111021,111020,210020,210021,211021,211020
567,111001,111002,112002,112001,211001,211002,212002,212001
568,111002,111003,112003,112002,211002,211003,212003,212002
569,111003,111004,112004,112003,211003,211004,212004,212003
570,111004,111005,112005,112004,211004,211005,212005,212004
571,111005,111006,112006,112005,211005,211006,212006,212005
572,111006,111007,112007,112006,211006,211007,212007,212006
573,111007,111008,112008,112007,211007,211008,212008,212007
574,111014,111015,112015,112014,211014,211015,212015,212014
575,111015,111016,112016,112015,211015,211016,212016,212015
576,111016,111017,112017,112016,211016,211017,212017,212016
577,111017,111018,112018,112017,211017,211018,212018,212017
578,111018,111019,112019,112018,211018,211019,212019,212018
579,111019,111020,112020,112019,211019,211020,212020,212019
580,111020,111021,112021,112020,211020,211021,212021,212020
581,112001,112002,113002,113001,212001,212002,213002,213001
582,112002,112003,113003,113002,212002,212003,213003,213002
583,112003,112004,113004,113003,212003,212004,213004,213003
584,112004,112005,113005,113004,212004,212005,213005,213004
585,112005,112006,113006,113005,212005,212006,213006,213005
586,112006,112007,113007,113006,212006,212007,213007,213006
587,112007,112008,113008,113007,212007,212008,213008,213007
588,112008,112009,113009,113008,212008,212009,213009,213008
589,112013,112014,113014,113013,212013,212014,213014,213013
590,112014,112015,113015,113014,212014,212015,213015,213014
591,112015,112016,113016,113015,212015,212016,213016,213015
592,112016,112017,113017,113016,212016,212017,213017,213016
593,112017,112018,113018,113017,212017,212018,213018,213017
594,112018,112019,113019,113018,212018,212019,213019,213018
595,112019,112020,113020,113019,212019,212020,213020,213019
596,112020,112021,113021,113020,212020,212021,213021,213020
597,113001,113002,114002,114001,213001,213002,214002,214001
598,113002,113003,114003,114002,213002,213003,214003,214002
599,113003,113004,114004,114003,213003,213004,214004,214003
600,113004,113005,114005,114004,213004,213005,214005,214004
601,113005,113006,114006,114005,213005,213006,214006,214005
602,113006,113007,114007,114006,213006,213007,214007,214006
603,113007,113008,114008,114007,213007,213008,214008,214007
604,113008,113009,114009,114008,213008,213009,214009,214008
605,113009,113010,114010,114009,213009,213010,214010,214009
606,113010,113011,114011,114010,213010,213011,214011,214010
607,113011,113012,114012,114011,213011,213012,214012,214011
608,113012,113013,114013,114012,213012,213013,214013,214012
609,113013,113014,114014,114013,213013,213014,214014,214013
610,113014,113015,114015,114014,213014,213015,214015,214014
611,113015,113016,114016,114015,213015,213016,214016,214015
612,113016,113017,114017,114016,213016,213017,214017,214016
613,113017,113018,114018,114017,213017,213018,214018,214017
614,113018,113019,114019,114018,213018,213019,214019,214018
615,113019,113020,114020,114019,213019,213020,214020,214019
616,113020,113021,114021,114020,213020,213021,214021,214020
617,114001,114002,115002,115001,214001,214002,215002,215001
618,114002,114003,115003,115002,214002,214003,215003,215002
619,114003,114004,115004,115003,214003,214004,215004,215003
620,114004,114005,115005,115004,214004,214005,215005,215004
621,114005,114006,115006,115005,214005,214006,215006,215005
622,114006,114007,115007,115006,214006,214007,215007,215006
623,114007,114008,115008,115007,214007,214008,215008,215007
624,114008,114009,115009,115008,214008,214009,215009,215008
625,114009,114010,115010,115009,214009,214010,215010,215009
626,114010,114011,115011,115010,214010,214011,215011,215010
627,114011,114012,115012,115011,214011,214012,215012,215011
628,114012,114013,115013,115012,214012,214013,215013,215012
629,114013,114014,115014,115013,214013,214014,215014,215013
630,114014,114015,115015,115014,214014,214015,215015,215014
631,114015,114016,115016,115015,214015,214016,215016,215015
632,114016,114017,115017,115016,214016,214017,215017,215016
633,114017,114018,115018,115017,214017,214018,215018,215017
634,114018,114019,115019,115018,214018,214019,215019,215018
635,114019,114020,115020,115019,214019,214020,215020,215019
636,114020,114021,115021,115020,214020,214021,215021,215020
637,115001,115002,116002,116001,215001,215002,216002,216001
638,115002,115003,116003,116002,215002,215003,216003,216002
639,115003,115004,116004,116003,215003,215004,216004,216003
640,115004,115005,116005,116004,215004,215005,216005,216004
641,115005,115006,116006,116005,215005,215006,216006,216005
642,115006,115007,116007,116006,215006,215007,216007,216006
643,115007,115008,116008,116007,215007,215008,216008,216007
644,115008,115009,116009,116008,215008,215009,216009,216008
645,115009,115010,116010,116009,215009,215010,216010,216009
646,115010,115011,116011,116010,215010,215011,216011,216010
647,115011,115012,116012,116011,215011,215012,216012,216011
648,115012,115013,116013,116012,215012,215013,216013,216012
649,115013,115014,116014,116013,215013,215014,216014,216013
650,115014,115015,116015,116014,215014,215015,216015,216014
651,115015,115016,116016,116015,215015,215016,216016,216015
652,115016,115017,116017,116016,215016,215017,216017,216016
653,115017,115018,116018,116017,215017,215018,216018,216017
654,115018,115019,116019,116018,215018,215019,216019,216018
655,115019,115020,116020,116019,215019,215020,216020,216019
656,115020,115021,116021,116020,215020,215021,216021,216020
657,116001,116002,117002,117001,216001,216002,217002,217001
658,116002,116003,117003,117002,216002,216003,217003,217002
659,116003,116004,117004,117003,216003,216004,217004,217003
660,116004,116005,117005,117004,216004,216005,217005,217004
661,116005,116006,117006,117005,216005,216006,217006,217005
662,116006,116007,117007,117006,216006,216007,217007,217006
663,116007,116008,117008,117007,216007,216008,217008,217007
664,116008,116009,117009,117008,216008,216009,217009,217008
665,116009,116010,117010,117009,216009,216010,217010,217009
666,116010,116011,117011,117010,216010,216011,217011,217010
667,116011,116012,117012,117011,216011,216012,217012,217011
668,116012,116013,117013,117012,216012,216013,217013,217012
669,116013,116014,117014,117013,216013,216014,217014,217013
670,116014,116015,117015,117014,216014,216015,217015,217014
671,116015,116016,117016,117015,216015,216016,217016,217015
672,116016,116017,117017,117016,216016,216017,217017,217016
673,116017,116018,117018,117017,216017,216018,217018,217017
674,116018,116019,117019,117018,216018,216019,217019,217018
675,116019,116020,117020,117019,216019,216020,217020,217019
676,116020,116021,117021,117020,216020,216021,217021,217020
677,117001,117002,118002,118001,217001,217002,218002,218001
678,117002,117003,118003,118002,217002,217003,218003,218002
679,117003,117004,118004,118003,217003,217004,218004,218003
680,117004,117005,118005,118004,217004,217005,218005,218004
681,117005,117006,118006,118005,217005,217006,218006,218005
682,117006,117007,118007,118006,217006,217007,218007,218006
683,117007,117008,118008,118007,217007,217008,218008,218007
684,117008,117009,118009,118008,217008,217009,218009,218008
685,117009,117010,118010,118009,217009,217010,218010,218009
686,117010,117011,118011,118010,217010,217011,218011,218010
687,117011,117012,118012,118011,217011,217012,218012,218011
688,117012,117013,118013,118012,217012,217013,218013,218012
689,117013,117014,118014,118013,217013,217014,218014,218013
690,117014,117015,118015,118014,217014,217015,218015,218014
691,117015,117016,118016,118015,217015,217016,218016,218015
692,117016,117017,118017,118016,217016,217017,218017,218016
693,117017,117018,118018,118017,217017,217018,218018,218017
694,117018,117019,118019,118018,217018,217019,218019,218018
695,117019,117020,118020,118019,217019,217020,218020,218019
696,117020,117021,118021,118020,217020,217021,218021,218020
697,118001,118002,119002,119001,218001,218002,219002,219001
698,118002,118003,119003,119002,218002,218003,219003,219002
699,118003,118004,119004,119003,218003,218004,219004,219003
700,118004,118005,119005,119004,218004,218005,219005,219004
701,118005,118006,119006,119005,218005,218006,219006,219005
702,118006,118007,119007,119006,218006,218007,219007,219006
703,118007,118008,119008,119007,218007,218008,219008,219007
704,118008,118009,119009,119008,218008,218009,219009,219008
705,118009,118010,119010,119009,218009,218010,219010,219009
706,118010,118011,119011,119010,218010,218011,219011,219010
707,118011,118012,119012,119011,218011,218012,219012,219011
708,118012,118013,119013,119012,218012,218013,219013,219012
709,118013,118014,119014,119013,218013,218014,219014,219013
710,118014,118015,119015,119014,218014,218015,219015,219014
711,118015,118016,119016,119015,218015,218016,219016,219015
712,118016,118017,119017,119016,218016,218017,219017,219016
713,118017,118018,119018,119017,218017,218018,219018,219017
714,118018,118019,119019,119018,218018,218019,219019,219018
715,118019,118020,119020,119019,218019,218020,219020,219019
716,118020,118021,119021,119020,218020,218021,219021,219020
717,119001,119002,120002,120001,219001,219002,220002,220001
718,119002,119003,120003,120002,219002,219003,220003,220002
719,119003,119004,120004,120003,219003,219004,220004,220003
720,119004,119005,120005,120004,219004,219005,220005,220004
721,119005,119006,120006,120005,219005,219006,220006,220005
722,119006,119007,120007,120006,219006,219007,220007,220006
723,119007,119008,120008,120007,219007,219008,220008,220007
724,119008,119009,120009,120008,219008,219009,220009,220008
725,119009,119010,120010,120009,219009,219010,220010,220009
726,119010,119011,120011,120010,219010,219011,220011,220010
727,119011,119012,120012,120011,219011,219012,220012,220011
728,119012,119013,120013,120012,219012,219013,220013,220012
729,119013,119014,120014,120013,219013,219014,220014,220013
730,119014,119015,120015,120014,219014,219015,220015,220014
731,119015,119016,120016,120015,219015,219016,220016,220015
732,119016,119017,120017,120016,219016,219017,220017,220016
733,119017,119018,120018,120017,219017,219018,220018,220017
734,119018,119019,120019,120018,219018,219019,220019,220018
735,119019,119020,120020,120019,219019,219020,220020,220019
736,119020,119021,120021,120020,219020,219021,220021,220020
737,300001,300002,301002,301001,400001,400002,401002,401001
738,300002,300003,301003,301002,400002,400003,401003,401002
739,300003,300004,301004,301003,400003,400004,401004,401003
740,300004,300005,301005,301004,400004,400005,401005,401004
741,300005,300006,301006,301005,400005,400006,401006,401005
742,300006,300007,301007,301006,400006,400007,401007,401006
743,300007,300008,301008,301007,400007,400008,401008,401007
744,300008,300009,301009,301008,400008,400009,401009,401008
745,300009,300010,301010,301009,400009,400010,401010,401009
746,300010,300011,301011,301010,400010,400011,401011,401010
747,300011,300012,301012,301011,400011,400012,401012,401011
748,300012,300013,301013,301012,400012,400013,401013,401012
749,300013,300014,301014,301013,400013,400014,401014,401013
750,300014,300015,301015,301014,400014,400015,401015,401014
751,300015,300016,301016,301015,400015,400016,401016,401015
752,300016,300017,301017,301016,400016,400017,401017,401016
753,300017,300018,301018,301017,400017,400018,401018,401017
754,300018,300019,301019,301018,400018,400019,401019,401018
755,300019,300020,301020,301019,400019,400020,401020,401019
756,300020,300021,301021,301020,400020,400021,401021,401020
757,301001,301002,302002,302001,401001,401002,402002,402001
758,301002,301003,302003,302002,401002,401003,402003,402002
759,301003,301004,302004,302003,401003,401004,402004,402003
760,301004,301005,302005,302004,401004,401005,402005,402004
761,301005,301006,302006,302005,401005,401006,402006,402005
762,301006,301007,302007,302006,401006,401007,402007,402006
763,301007,301008,302008,302007,401007,401008,402008,402007
764,301008,301009,302009,302008,401008,401009,402009,402008
765,301009,301010,302010,302009,401009,401010,402010,402009
766,301010,301011,302011,302010,401010,401011,402011,402010
767,301011,301012,302012,302011,401011,401012,402012,402011
768,301012,301013,302013,302012,401012,401013,402013,402012
769,301013,301014,302014,302013,401013,401014,402014,402013
770,301014,301015,302015,302014,401014,401015,402015,402014
771,301015,301016,302016,302015,401015,401016,402016,402015
772,301016,301017,302017,302016,401016,401017,402017,402016
773,301017,301018,302018,302017,401017,401018,402018,402017
774,301018,301019,302019,302018,401018,401019,402019,402018
775,301019,301020,302020,302019,401019,401020,402020,402019
776,301020,301021,302021,302020,401020,401021,402021,402020
777,302001,302002,303002,303001,402001,402002,403002,403001
778,302002,302003,303003,303002,402002,402003,403003,403002
779,302003,302004,303004,303003,402003,402004,403004,403003
780,302004,302005,303005,303004,402004,402005,403005,403004
781,302005,302006,303006,303005,402005,402006,403006,403005
782,302006,302007,303007,303006,402006,402007,403007,403006
783,302007,302008,303008,303007,402007,402008,403008,403007
784,302008,302009,303009,303008,402008,402009,403009,403008
785,302009,302010,303010,303009,402009,402010,403010,403009
786,302010,302011,303011,303010,402010,402011,403011,403010
787,302011,302012,303012,303011,402011,402012,403012,403011
788,302012,302013,303013,303012,402012,402013,403013,403012
789,302013,302014,303014,303013,402013,402014,403014,403013
790,302014,302015,303015,303014,402014,402015,403015,403014
791,302015,302016,303016,303015,402015,402016,403016,403015
792,302016,302017,303017,303016,402016,402017,403017,403016
793,302017,302018,303018,303017,402017,402018,403018,403017
794,302018,302019,303019,303018,402018,402019,403019,403018
795,302019,302020,303020,303019,402019,402020,403020,403019
796,302020,302021,303021,303020,402020,402021,403021,403020
797,303001,303002,304002,304001,403001,403002,404002,404001
798,303002,303003,304003,304002,403002,403003,404003,404002
799,303003,303004,304004,304003,403003,403004,404004,404003
800,303004,303005,304005,304004,403004,403005,404005,404004
801,303005,303006,304006,304005,403005,403006,404006,404005
802,303006,303007,304007,304006,403006,403007,404007,404006
803,303007,303008,304008,304007,403007,403008,404008,404007
804,303008,303009,304009,304008,403008,403009,404009,404008
805,303013,303014,304014,304013,403013,403014,404014,404013
806,303014,303015,304015,304014,403014,403015,404015,404014
807,303015,303016,304016,304015,403015,403016,404016,404015
808,303016,303017,304017,304016,403016,403017,404017,404016
809,303017,303018,304018,304017,403017,403018,404018,404017
810,303018,303019,304019,304018,403018,403019,404019,404018
811,303019,303020,304020,304019,403019,403020,404020,404019
812,303020,303021,304021,304020,403020,403021,404021,404020
813,304001,304002,305002,305001,404001,404002,405002,405001
814,304002,304003,305003,305002,404002,404003,405003,405002
815,304003,304004,305004,305003,404003,404004,405004,405003
816,304004,304005,305005,305004,404004,404005,405005,405004
817,304005,304006,305006,305005,404005,404006,405006,405005
818,304006,304007,305007,305006,404006,404007,405007,405006
819,304015,304016,305016,305015,404015,404016,405016,405015
820,304016,304017,305017,305016,404016,404017,405017,405016
821,304017,304018,305018,305017,404017,404018,405018,405017
822,304018,304019,305019,305018,404018,404019,405019,405018
823,304019,304020,305020,305019,404019,404020,405020,405019
824,304020,304021,305021,305020,404020,404021,405021,405020
825,305001,305002,306002,306001,405001,405002,406002,406001
826,305002,305003,306003,306002,405002,405003,406003,406002
827,305003,305004,306004,306003,405003,405004,406004,406003
828,305004,305005,306005,306004,405004,405005,406005,406004
829,305005,305006,306006,306005,405005,405006,406006,406005
830,305016,305017,306017,306016,405016,405017,406017,406016
831,305017,305018,306018,306017,405017,405018,406018,406017
832,305018,305019,306019,306018,405018,405019,406019,406018
833,305019,305020,306020,306019,405019,405020,406020,406019
834,305020,305021,306021,306020,405020,405021,406021,406020
835,306001,306002,307002,307001,406001,406002,407002,407001
836,306002,306003,307003,307002,406002,406003,407003,407002
837,306003,306004,307004,307003,406003,406004,407004,407003
838,306004,306005,307005,307004,406004,406005,407005,407004
839,306017,306018,307018,307017,406017,406018,407018,407017
840,306018,306019,307019,307018,406018,406019,407019,407018
841,306019,306020,307020,307019,406019,406020,407020,407019
842,306020,306021,307021,307020,406020,406021,407021,407020
843,307001,307002,308002,308001,407001,407002,408002,408001
844,307002,307003,308003,308002,407002,407003,408003,408002
845,307003,307004,308004,308003,407003,407004,408004,408003
846,307004,307005,308005,308004,407004,407005,408005,408004
847,307017,307018,308018,308017,407017,407018,408018,408017
848,307018,307019,308019,308018,407018,407019,408019,408018
849,307019,307020,308020,308019,407019,407020,408020,408019
850,307020,307021,308021,308020,407020,407021,408021,408020
851,308001,308002,309002,309001,408001,408002,409002,409001
852,308002,308003,309003,309002,408002,408003,409003,409002
853,308003,308004,309004,309003,408003,408004,409004,409003
854,308018,308019,309019,309018,408018,408019,409019,409018
855,308019,308020,309020,309019,408019,408020,409020,409019
856,308020,308021,309021,309020,408020,408021,409021,409020
857,309001,309002,310002,310001,409001,409002,410002,410001
858,309002,309003,310003,310002,409002,409003,410003,410002
859,309003,309004,310004,310003,409003,409004,410004,410003
860,309018,309019,310019,310018,409018,409019,410019,410018
861,309019,309020,310020,310019,409019,409020,410020,410019
862,309020,309021,310021,310020,409020,409021,410021,410020
863,310001,310002,311002,311001,410001,410002,411002,411001
864,310002,310003,311003,311002,410002,410003,411003,411002
865,310003,310004,311004,311003,410003,410004,411004,411003
866,310018,310019,311019,311018,410018,410019,411019,411018
867,310019,310020,311020,311019,410019,410020,411020,411019
868,310020,310021,311021,311020,410020,410021,411021,411020
869,311001,311002,312002,312001,411001,411002,412002,412001
870,311002,311003,312003,312002,411002,411003,412003,412002
871,311003,311004,312004,312003,411003,411004,412004,412003
872,311018,311019,312019,312018,411018,411019,412019,412018
873,311019,311020,312020,312019,411019,411020,412020,412019
874,311020,311021,312021,312020,411020,411021,412021,412020
875,312001,312002,313002,313001,412001,412002,413002,413001
876,312002,312003,313003,313002,412002,412003,413003,413002
877,312003,312004,313004,313003,412003,412004,413004,413003
878,312004,312005,313005,313004,412004,412005,413005,413004
879,312017,312018,313018,313017,412017,412018,413018,413017
880,312018,312019,313019,313018,412018,412019,413019,413018
881,312019,312020,313020,313019,412019,412020,413020,413019
882,312020,312021,313021,313020,412020,412021,413021,413020
883,313001,313002,314002,314001,413001,413002,414002,414001
884,313002,313003,314003,314002,413002,413003,414003,414002
885,313003,313004,314004,314003,413003,413004,414004,414003
886,313004,313005,314005,314004,413004,413005,414005,414004
887,313017,313018,314018,314017,413017,413018,414018,414017
888,313018,313019,314019,314018,413018,413019,414019,414018
889,313019,313020,314020,314019,413019,413020,414020,414019
890,313020,313021,314021,314020,413020,413021,414021,414020
891,314001,314002,315002,315001,414001,414002,415002,415001
892,314002,314003,315003,315002,414002,414003,415003,415002
893,314003,314004,315004,315003,414003,414004,415004,415003
894,314004,314005,315005,315004,414004,414005,415005,415004
895,314005,314006,315006,315005,414005,414006,415006,415005
896,314016,314017,315017,315016,414016,414017,415017,415016
897,314017,314018,315018,315017,414017,414018,415018,415017
898,314018,314019,315019,315018,414018,414019,415019,415018
899,314019,314020,315020,315019,414019,414020,415020,415019
900,314020,314021,315021,315020,414020,414021,415021,415020
901,315001,315002,316002,316001,415001,415002,416002,416001
902,315002,315003,316003,316002,415002,415003,416003,416002
903,315003,315004,316004,316003,415003,415004,416004,416003
904,315004,315005,316005,316004,415004,415005,416005,416004
905,315005,315006,316006,316005,415005,415006,416006,416005
906,315006,315007,316007,316006,415006,415007,416007,416006
907,315015,315016,316016,316015,415015,415016,416016,416015
908,315016,315017,316017,316016,415016,415017,416017,416016
909,315017,315018,316018,316017,415017,415018,416018,416017
910,315018,315019,316019,316018,415018,415019,416019,416018
911,315019,315020,316020,316019,415019,415020,416020,416019
912,315020,315021,316021,316020,415020,415021,416021,416020
913,316001,316002,317002,317001,416001,416002,417002,417001
914,316002,316003,317003,317002,416002,416003,417003,417002
915,316003,316004,317004,317003,416003,416004,417004,417003
916,316004,316005,317005,317004,416004,416005,417005,417004
917,316005,316006,317006,317005,416005,416006,417006,417005
918,316006,316007,317007,317006,416006,416007,417007,417006
919,316007,316008,317008,317007,416007,416008,417008,417007
920,316008,316009,317009,317008,416008,416009,417009,417008
921,316013,316014,317014,317013,416013,416014,417014,417013
922,316014,316015,317015,317014,416014,416015,417015,417014
923,316015,316016,317016,317015,416015,416016,417016,417015
924,316016,316017,317017,317016,416016,416017,417017,417016
925,316017,316018,317018,317017,416017,416018,417018,417017
926,316018,316019,317019,317018,416018,416019,417019,417018
927,316019,316020,317020,317019,416019,416020,417020,417019
928,316020,316021,317021,317020,416020,416021,417021,417020
929,317001,317002,318002,318001,417001,417002,418002,418001
930,317002,317003,318003,318002,417002,417003,418003,418002
931,317003,317004,318004,318003,417003,417004,418004,418003
932,317004,317005,318005,318004,417004,417005,418005,418004
933,317005,317006,318006,318005,417005,417006,418006,418005
934,317006,317007,318007,318006,417006,417007,418007,418006
935,317007,317008,318008,318007,417007,417008,418008,418007
936,317008,317009,318009,318008,417008,417009,418009,418008
937,317009,317010,318010,318009,417009,417010,418010,418009
938,317010,317011,318011,318010,417010,417011,418011,418010
939,317011,317012,318012,318011,417011,417012,418012,418011
940,317012,317013,318013,318012,417012,417013,418013,418012
941,317013,317014,318014,318013,417013,417014,418014,418013
942,317014,317015,318015,318014,417014,417015,418015,418014
943,317015,317016,318016,318015,417015,417016,418016,418015
944,317016,317017,318017,318016,417016,417017,418017,418016
945,317017,317018,318018,318017,417017,417018,418018,418017
946,317018,317019,318019,318018,417018,417019,418019,418018
947,317019,317020,318020,318019,417019,417020,418020,418019
948,317020,317021,318021,318020,417020,417021,418021,418020
949,318001,318002,319002,319001,418001,418002,419002,419001
950,318002,318003,319003,319002,418002,418003,419003,419002
951,318003,318004,319004,319003,418003,418004,419004,419003
952,318004,318005,319005,319004,418004,418005,419005,419004
953,318005,318006,319006,319005,418005,418006,419006,419005
954,318006,318007,319007,319006,418006,418007,419007,419006
955,318007,318008,319008,319007,418007,418008,419008,419007
956,318008,318009,319009,319008,418008,418009,419009,419008
957,318009,318010,319010,319009,418009,418010,419010,419009
958,318010,318011,319011,319010,418010,418011,419011,419010
959,318011,318012,319012,319011,418011,418012,419012,419011
960,318012,318013,319013,319012,418012,418013,419013,419012
961,318013,318014,319014,319013,418013,418014,419014,419013
962,318014,318015,319015,319014,418014,418015,419015,419014
963,318015,318016,319016,319015,418015,418016,419016,419015
964,318016,318017,319017,319016,418016,418017,419017,419016
965,318017,318018,319018,319017,418017,418018,419018,419017
966,318018,318019,319019,319018,418018,418019,419019,419018
967,318019,318020,319020,319019,418019,418020,419020,419019
968,318020,318021,319021,319020,418020,418021,419021,419020
969,319001,319002,320002,320001,419001,419002,420002,420001
970,319002,319003,320003,320002,419002,419003,420003,420002
971,319003,319004,320004,320003,419003,419004,420004,420003
972,319004,319005,320005,320004,419004,419005,420005,420004
973,319005,319006,320006,320005,419005,419006,420006,420005
974,319006,319007,320007,320006,419006,419007,420007,420006
975,319007,319008,320008,320007,419007,419008,420008,420007
976,319008,319009,320009,320008,419008,419009,420009,420008
977,319009,319010,320010,320009,419009,419010,420010,420009
978,319010,319011,320011,320010,419010,419011,420011,420010
979,319011,319012,320012,320011,419011,419012,420012,420011
980,319012,319013,320013,320012,419012,419013,420013,420012
981,319013,319014,320014,320013,419013,419014,420014,420013
982,319014,319015,320015,320014,419014,419015,420015,420014
983,319015,319016,320016,320015,419015,419016,420016,420015
984,319016,319017,320017,320016,419016,419017,420017,420016
985,319017,319018,320018,320017,419017,419018,420018,420017
986,319018,319019,320019,320018,419018,419019,420019,420018
987,319019,319020,320020,320019,419019,419020,420020,420019
988,319020,319021,320021,320020,419020,419021,420021,420020
989,400001,400002,401002,401001,500001,500002,501002,501001
990,400002,400003,401003,401002,500002,500003,501003,501002
991,400003,400004,401004,401003,500003,500004,501004,501003
992,400004,400005,401005,401004,500004,500005,501005,501004
993,400005,400006,401006,401005,500005,500006,501006,501005
994,400006,400007,401007,401006,500006,500007,501007,501006
995,400007,400008,401008,401007,500007,500008,501008,501007
996,400008,400009,401009,401008,500008,500009,501009,501008
997,400009,400010,401010,401009,500009,500010,501010,501009
998,400010,400011,401011,401010,500010,500011,501011,501010
999,400011,400012,401012,401011,500011,500012,501012,501011
1000,400012,400013,401013,401012,500012,500013,501013,501012
1001,400013,400014,401014,401013,500013,500014,501014,501013
1002,400014,400015,401015,401014,500014,500015,501015,501014
1003,400015,400016,401016,401015,500015,500016,501016,501015
1004,400016,400017,401017,401016,500016,500017,501017,501016
1005,400017,400018,401018,401017,500017,500018,501018,501017
1006,400018,400019,401019,401018,500018,500019,501019,501018
1007,400019,400020,401020,401019,500019,500020,501020,501019
1008,400020,400021,401021,401020,500020,500021,501021,501020
1009,401001,401002,402002,402001,501001,501002,502002,502001
1010,401002,401003,402003,402002,501002,501003,502003,502002
1011,401003,401004,402004,402003,501003,501004,502004,502003
1012,401004,401005,402005,402004,501004,501005,502005,502004
1013,401005,401006,402006,402005,501005,501006,502006,502005
1014,401006,401007,402007,402006,501006,501007,502007,502006
1015,401007,401008,402008,402007,501007,501008,502008,502007
1016,401008,401009,402009,402008,501008,501009,502009,502008
1017,401009,401010,402010,402009,501009,501010,502010,502009
1018,401010,401011,402011,402010,501010,501011,502011,502010
1019,401011,401012,402012,402011,501011,501012,502012,502011
1020,401012,401013,402013,402012,501012,501013,502013,502012
1021,401013,401014,402014,402013,501013,501014,502014,502013
1022,401014,401015,402015,402014,501014,501015,502015,502014
1023,401015,401016,402016,402015,501015,501016,502016,502015
1024,401016,401017,402017,402016,501016,501017,502017,502016
1025,401017,401018,402018,402017,501017,501018,502018,502017
1026,401018,401019,402019,402018,501018,501019,502019,502018
1027,401019,401020,402020,402019,501019,501020,502020,502019
1028,401020,401021,402021,402020,501020,501021,502021,502020
1029,402001,402002,403002,403001,502001,502002,503002,503001
1030,402002,402003,403003,403002,502002,502003,503003,503002
1031,402003,402004,403004,403003,502003,502004,503004,503003
1032,402004,402005,403005,403004,502004,502005,503005,503004
1033,402005,402006,403006,403005,502005,502006,503006,503005
1034,402006,402007,403007,403006,502006,502007,503007,503006
1035,402007,402008,403008,403007,502007,502008,503008,503007
1036,402008,402009,403009,403008,502008,502009,503009,503008
1037,402009,402010,403010,403009,502009,502010,503010,503009
1038,402010,402011,403011,403010,502010,502011,503011,503010
1039,402011,402012,403012,403011,502011,502012,503012,503011
1040,402012,402013,403013,403012,502012,502013,503013,503012
1041,402013,402014,403014,403013,502013,502014,503014,503013
1042,402014,402015,403015,403014,502014,502015,503015,503014
1043,402015,402016,403016,403015,502015,502016,503016,503015
1044,402016,402017,403017,403016,502016,502017,503017,503016
1045,402017,402018,403018,403017,502017,502018,503018,503017
1046,402018,402019,403019,403018,502018,502019,503019,503018
1047,402019,402020,403020,403019,502019,502020,503020,503019
1048,402020,402021,403021,403020,502020,502021,503021,503020
1049,403001,403002,404002,404001,503001,503002,504002,504001
1050,403002,403003,404003,404002,503002,503003,504003,504002
1051,403003,403004,404004,404003,503003,503004,504004,504003
1052,403004,403005,404005,404004,503004,503005,504005,504004
1053,403005,403006,404006,404005,503005,503006,504006,504005
1054,403006,403007,404007,404006,503006,503007,504007,504006
1055,403007,403008,404008,404007,503007,503008,504008,504007
1056,403008,403009,404009,404008,503008,503009,504009,504008
1057,403013,403014,404014,404013,503013,503014,504014,504013
1058,403014,403015,404015,404014,503014,503015,504015,504014
1059,403015,403016,404016,404015,503015,503016,504016,504015
1060,403016,403017,404017,404016,503016,503017,504017,504016
1061,403017,403018,404018,404017,503017,503018,504018,504017
1062,403018,403019,404019,404018,503018,503019,504019,504018
1063,403019,403020,404020,404019,503019,503020,504020,504019
1064,403020,403021,404021,404020,503020,503021,504021,504020
1065,404001,404002,405002,405001,504001,504002,505002,505001
1066,404002,404003,405003,405002,504002,504003,505003,505002
1067,404003,404004,405004,405003,504003,504004,505004,505003
1068,404004,404005,405005,405004,504004,504005,505005,505004
1069,404005,404006,405006,405005,504005,504006,505006,505005
1070,404006,404007,405007,405006,504006,504007,505007,505006
1071,404015,404016,405016,405015,504015,504016,505016,505015
1072,404016,404017,405017,405016,504016,504017,505017,505016
1073,404017,404018,405018,405017,504017,504018,505018,505017
1074,404018,404019,405019,405018,504018,504019,505019,505018
1075,404019,404020,405020,405019,504019,504020,505020,505019
1076,404020,404021,405021,405020,504020,504021,505021,505020
1077,405001,405002,406002,406001,505001,505002,506002,506001
1078,405002,405003,406003,406002,505002,505003,506003,506002
1079,405003,405004,406004,406003,505003,505004,506004,506003
1080,405004,405005,406005,406004,505004,505005,506005,506004
1081,405005,405006,406006,406005,505005,505006,506006,506005
1082,405016,405017,406017,406016,505016,505017,506017,506016
1083,405017,405018,406018,406017,505017,505018,506018,506017
1084,405018,405019,406019,406018,505018,505019,506019,506018
1085,405019,405020,406020,406019,505019,505020,506020,506019
1086,405020,405021,406021,406020,505020,505021,506021,506020
1087,406001,406002,407002,407001,506001,506002,507002,507001
1088,406002,406003,407003,407002,506002,506003,507003,507002
1089,406003,406004,407004,407003,506003,506004,507004,507003
1090,406004,406005,407005,407004,506004,506005,507005,507004
1091,406017,406018,407018,407017,506017,506018,507018,507017
1092,406018,406019,407019,407018,506018,506019,507019,507018
1093,406019,406020,407020,407019,506019,506020,507020,507019
1094,406020,406021,407021,407020,506020,506021,507021,507020
1095,407001,407002,408002,408001,507001,507002,508002,508001
1096,407002,407003,408003,408002,507002,507003,508003,508002
1097,407003,407004,408004,408003,507003,507004,508004,508003
1098,407004,407005,408005,408004,507004,507005,508005,508004
1099,407017,407018,408018,408017,507017,507018,508018,508017
1100,407018,407019,408019,408018,507018,507019,508019,508018
1101,407019,407020,408020,408019,507019,507020,508020,508019
1102,407020,407021,408021,408020,507020,507021,508021,508020
1103,408001,408002,409002,409001,508001,508002,509002,509001
1104,408002,408003,409003,409002,508002,508003,509003,509002
1105,408003,408004,409004,409003,508003,508004,509004,509003
1106,408018,408019,409019,409018,508018,508019,509019,509018
1107,408019,408020,409020,409019,508019,508020,509020,509019
1108,408020,408021,409021,409020,508020,508021,509021,509020
1109,409001,409002,410002,410001,509001,509002,510002,510001
1110,409002,409003,410003,410002,509002,509003,510003,510002
1111,409003,409004,410004,410003,509003,509004,510004,510003
1112,409018,409019,410019,410018,509018,509019,510019,510018
1113,409019,409020,410020,410019,509019,509020,510020,510019
1114,409020,409021,410021,410020,509020,509021,510021,510020
1115,410001,410002,411002,411001,510001,510002,511002,511001
1116,410002,410003,411003,411002,510002,510003,511003,511002
1117,410003,410004,411004,411003,510003,510004,511004,511003
1118,410018,410019,411019,411018,510018,510019,511019,511018
1119,410019,410020,411020,411019,510019,510020,511020,511019
1120,410020,410021,411021,411020,510020,510021,511021,511020
1121,411001,411002,412002,412001,511001,511002,512002,512001
1122,411002,411003,412003,412002,511002,511003,512003,512002
1123,411003,411004,412004,412003,511003,511004,512004,512003
1124,411018,411019,412019,412018,511018,511019,512019,512018
1125,411019,411020,412020,412019,511019,511020,512020,512019
1126,411020,411021,412021,412020,511020,511021,512021,512020
1127,412001,412002,413002,413001,512001,512002,513002,513001
1128,412002,412003,413003,413002,512002,512003,513003,513002
1129,412003,412004,413004,413003,512003,512004,513004,513003
1130,412004,412005,413005,413004,512004,512005,513005,513004
1131,412017,412018,413018,413017,512017,512018,513018,513017
1132,412018,412019,413019,413018,512018,512019,513019,513018
1133,412019,412020,413020,413019,512019,512020,513020,513019
1134,412020,412021,413021,413020,512020,512021,513021,513020
1135,413001,413002,414002,414001,513001,513002,514002,514001
1136,413002,413003,414003,414002,513002,513003,514003,514002
1137,413003,413004,414004,414003,513003,513004,514004,514003
1138,413004,413005,414005,414004,513004,513005,514005,514004
1139,413017,413018,414018,414017,513017,513018,514018,514017
1140,413018,413019,414019,414018,513018,513019,514019,514018
1141,413019,413020,414020,414019,513019,513020,514020,514019
1142,413020,413021,414021,414020,513020,513021,514021,514020
1143,414001,414002,415002,415001,514001,514002,515002,515001
1144,414002,414003,415003,415002,514002,514003,515003,515002
1145,414003,414004,415004,415003,514003,514004,515004,515003
1146,414004,414005,415005,415004,514004,514005,515005,515004
1147,414005,414006,415006,415005,514005,514006,515006,515005
1148,414016,414017,415017,415016,514016,514017,515017,515016
1149,414017,414018,415018,415017,514017,514018,515018,515017
1150,414018,414019,415019,415018,514018,514019,515019,515018
1151,414019,414020,415020,415019,514019,514020,515020,515019
1152,414020,414021,415021,415020,514020,514021,515021,515020
1153,415001,415002,416002,416001,515001,515002,516002,516001
1154,415002,415003,416003,416002,515002,515003,516003,516002
1155,415003,415004,416004,416003,515003,515004,516004,516003
1156,415004,415005,416005,416004,515004,515005,516005,516004
1157,415005,415006,416006,416005,515005,515006,516006,516005
1158,415006,415007,416007,416006,515006,515007,516007,516006
1159,415015,415016,416016,416015,515015,515016,516016,516015
1160,415016,415017,416017,416016,515016,515017,516017,516016
1161,415017,415018,416018,416017,515017,515018,516018,516017
1162,415018,415019,416019,416018,515018,515019,516019,516018
1163,415019,415020,416020,416019,515019,515020,516020,516019
1164,415020,415021,416021,416020,515020,515021,516021,516020
1165,416001,416002,417002,417001,516001,516002,517002,517001
1166,416002,416003,417003,417002,516002,516003,517003,517002
1167,416003,416004,417004,417003,516003,516004,517004,517003
1168,416004,416005,417005,417004,516004,516005,517005,517004
1169,416005,416006,417006,417005,516005,516006,517006,517005
1170,416006,416007,417007,417006,516006,516007,517007,517006
1171,416007,416008,417008,417007,516007,516008,517008,517007
1172,416008,416009,417009,417008,516008,516009,517009,517008
1173,416013,416014,417014,417013,516013,516014,517014,517013
1174,416014,416015,417015,417014,516014,516015,517015,517014
1175,416015,416016,417016,417015,516015,516016,517016,517015
1176,416016,416017,417017,417016,516016,516017,517017,517016
1177,416017,416018,417018,417017,516017,516018,517018,517017
1178,416018,416019,417019,417018,516018,516019,517019,517018
1179,416019,416020,417020,417019,516019,516020,517020,517019
1180,416020,416021,417021,417020,516020,516021,517021,517020
1181,417001,417002,418002,418001,517001,517002,518002,518001
1182,417002,417003,418003,418002,517002,517003,518003,518002
1183,417003,417004,418004,418003,517003,517004,518004,518003
1184,417004,417005,418005,418004,517004,517005,518005,518004
1185,417005,417006,418006,418005,517005,517006,518006,518005
1186,417006,417007,418007,418006,517006,517007,518007,518006
1187,417007,417008,418008,418007,517007,517008,518008,518007
1188,417008,417009,418009,418008,517008,517009,518009,518008
1189,417009,417010,418010,418009,517009,517010,518010,518009
1190,417010,417011,418011,418010,517010,517011,518011,518010
1191,417011,417012,418012,418011,517011,517012,518012,518011
1192,417012,417013,418013,418012,517012,517013,518013,518012
1193,417013,417014,418014,418013,517013,517014,518014,518013
1194,417014,417015,418015,418014,517014,517015,518015,518014
1195,417015,417016,418016,418015,517015,517016,518016,518015
1196,417016,417017,418017,418016,517016,517017,518017,518016
1197,417017,417018,418018,418017,517017,517018,518018,518017
1198,417018,417019,418019,418018,517018,517019,518019,518018
1199,417019,417020,418020,418019,517019,517020,518020,518019
1200,417020,417021,418021,418020,517020,517021,518021,518020
1201,418001,418002,419002,419001,518001,518002,519002,519001
1202,418002,418003,419003,419002,518002,518003,519003,519002
1203,418003,418004,419004,419003,518003,518004,519004,519003
1204,418004,418005,419005,419004,518004,518005,519005,519004
1205,418005,418006,419006,419005,518005,518006,519006,519005
1206,418006,418007,419007,419006,518006,518007,519007,519006
1207,418007,418008,419008,419007,518007,518008,519008,519007
1208,418008,418009,419009,419008,518008,518009,519009,519008
1209,418009,418010,419010,419009,518009,518010,519010,519009
1210,418010,418011,419011,419010,518010,518011,519011,519010
1211,418011,418012,419012,419011,518011,518012,519012,519011
1212,418012,418013,419013,419012,518012,518013,519013,519012
1213,418013,418014,419014,419013,518013,518014,519014,519013
1214,418014,418015,419015,419014,518014,518015,519015,519014
1215,418015,418016,419016,419015,518015,518016,519016,519015
1216,418016,418017,419017,419016,518016,518017,519017,519016
1217,418017,418018,419018,419017,518017,518018,519018,519017
1218,418018,418019,419019,419018,518018,518019,519019,519018
1219,418019,418020,419020,419019,518019,518020,519020,519019
1220,418020,418021,419021,419020,518020,518021,519021,519020
1221,419001,419002,420002,420001,519001,519002,520002,520001
1222,419002,419003,420003,420002,519002,519003,520003,520002
1223,419003,419004,420004,420003,519003,519004,520004,520003
1224,419004,419005,420005,420004,519004,519005,520005,520004
1225,419005,419006,420006,420005,519005,519006,520006,520005
1226,419006,419007,420007,420006,519006,519007,520007,520006
1227,419007,419008,420008,420007,519007,519008,520008,520007
1228,419008,419009,420009,420008,519008,519009,520009,520008
1229,419009,419010,420010,420009,519009,519010,520010,520009
1230,419010,419011,420011,420010,519010,519011,520011,520010
1231,419011,419012,420012,420011,519011,519012,520012,520011
1232,419012,419013,420013,420012,519012,519013,520013,520012
1233,419013,419014,420014,420013,519013,519014,520014,520013
1234,419014,419015,420015,420014,519014,519015,520015,520014
1235,419015,419016,420016,420015,519015,519016,520016,520015
1236,419016,419017,420017,420016,519016,519017,520017,520016
1237,419017,419018,420018,420017,519017,519018,520018,520017
1238,419018,419019,420019,420018,519018,519019,520019,520018
1239,419019,419020,420020,420019,519019,519020,520020,520019
1240,419020,419021,420021,420020,519020,519021,520021,520020
1241,500001,500002,501002,501001,600001,600002,601002,601001
1242,500002,500003,501003,501002,600002,600003,601003,601002
1243,500003,500004,501004,501003,600003,600004,601004,601003
1244,500004,500005,501005,501004,600004,600005,601005,601004
1245,500005,500006,501006,501005,600005,600006,601006,601005
1246,500006,500007,501007,501006,600006,600007,601007,601006
1247,500007,500008,501008,501007,600007,600008,601008,601007
1248,500008,500009,501009,501008,600008,600009,601009,601008
1249,500009,500010,501010,501009,600009,600010,601010,601009
1250,500010,500011,501011,501010,600010,600011,601011,601010
1251,500011,500012,501012,501011,600011,600012,601012,601011
1252,500012,500013,501013,501012,600012,600013,601013,601012
1253,500013,500014,501014,501013,600013,600014,601014,601013
1254,500014,500015,501015,501014,600014,600015,601015,601014
1255,500015,500016,501016,501015,600015,600016,601016,601015
1256,500016,500017,501017,501016,600016,600017,601017,601016
1257,500017,500018,501018,501017,600017,600018,601018,601017
1258,500018,500019,501019,501018,600018,600019,601019,601018
1259,500019,500020,501020,501019,600019,600020,601020,601019
1260,500020,500021,501021,501020,600020,600021,601021,601020
1261,501001,501002,502002,502001,601001,601002,602002,602001
1262,501002,501003,502003,502002,601002,601003,602003,602002
1263,501003,501004,502004,502003,601003,601004,602004,602003
1264,501004,501005,502005,502004,601004,601005,602005,602004
1265,501005,501006,502006,502005,601005,601006,602006,602005
1266,501006,501007,502007,502006,601006,601007,602007,602006
1267,501007,501008,502008,502007,601007,601008,602008,602007
1268,501008,501009,502009,502008,601008,601009,602009,602008
1269,501009,501010,502010,502009,601009,601010,602010,602009
1270,501010,501011,502011,502010,601010,601011,602011,602010
1271,501011,501012,502012,502011,601011,601012,602012,602011
1272,501012,501013,502013,502012,601012,601013,602013,602012
1273,501013,501014,502014,502013,601013,601014,602014,602013
1274,501014,501015,502015,502014,601014,601015,602015,602014
1275,501015,501016,502016,502015,601015,601016,602016,602015
1276,501016,501017,502017,502016,601016,601017,602017,602016
1277,501017,501018,502018,502017,601017,601018,602018,602017
1278,501018,501019,502019,502018,601018,601019,602019,602018
1279,501019,501020,502020,502019,601019,601020,602020,602019
1280,501020,501021,502021,502020,601020,601021,602021,602020
1281,502001,502002,503002,503001,602001,602002,603002,603001
1282,502002,502003,503003,503002,602002,602003,603003,603002
1283,502003,502004,503004,503003,602003,602004,603004,603003
1284,502004,502005,503005,503004,602004,602005,603005,603004
1285,502005,502006,503006,503005,602005,602006,603006,603005
1286,502006,502007,503007,503006,602006,602007,603007,603006
1287,502007,502008,503008,503007,602007,602008,603008,603007
1288,502008,502009,503009,503008,602008,602009,603009,603008
1289,502009,502010,503010,503009,602009,602010,603010,603009
1290,502010,502011,503011,503010,602010,602011,603011,603010
1291,502011,502012,503012,503011,602011,602012,603012,603011
1292,502012,502013,503013,503012,602012,602013,603013,603012
1293,502013,502014,503014,503013,602013,602014,603014,603013
1294,502014,502015,503015,503014,602014,602015,603015,603014
1295,502015,502016,503016,503015,602015,602016,603016,603015
1296,502016,502017,503017,503016,602016,602017,603017,603016
1297,502017,502018,503018,503017,602017,602018,603018,603017
1298,502018,502019,503019,503018,602018,602019,603019,603018
1299,502019,502020,503020,503019,602019,602020,603020,603019
1300,502020,502021,503021,503020,602020,602021,603021,603020
1301,503001,503002,504002,504001,603001,603002,604002,604001
1302,503002,503003,504003,504002,603002,603003,604003,604002
1303,503003,503004,504004,504003,603003,603004,604004,604003
1304,503004,503005,504005,504004,603004,603005,604005,604004
1305,503005,503006,504006,504005,603005,603006,604006,604005
1306,503006,503007,504007,504006,603006,603007,604007,604006
1307,503007,503008,504008,504007,603007,603008,604008,604007
1308,503008,503009,504009,504008,603008,603009,604009,604008
1309,503009,503010,504010,504009,603009,603010,604010,604009
1310,503010,503011,504011,504010,603010,603011,604011,604010
1311,503011,503012,504012,504011,603011,603012,604012,604011
1312,503012,503013,504013,504012,603012,603013,604013,604012
1313,503013,503014,504014,504013,603013,603014,604014,604013
1314,503014,503015,504015,504014,603014,603015,604015,604014
1315,503015,503016,504016,504015,603015,603016,604016,604015
1316,503016,503017,504017,504016,603016,603017,604017,604016
1317,503017,503018,504018,504017,603017,603018,604018,604017
1318,503018,503019,504019,504018,603018,603019,604019,604018
1319,503019,503020,504020,504019,603019,603020,604020,604019
1320,503020,503021,504021,504020,603020,603021,604021,604020
1321,504001,504002,505002,505001,604001,604002,605002,605001
1322,504002,504003,505003,505002,604002,604003,605003,605002
1323,504003,504004,505004,505003,604003,604004,605004,605003
1324,504004,504005,505005,505004,604004,604005,605005,605004
1325,504005,504006,505006,505005,604005,604006,605006,605005
1326,504006,504007,505007,505006,604006,604007,605007,605006
1327,504007,504008,505008,505007,604007,604008,605008,605007
1328,504008,504009,505009,505008,604008,604009,605009,605008
1329,504009,504010,505010,505009,604009,604010,605010,605009
1330,504010,504011,505011,505010,604010,604011,605011,605010
1331,504011,504012,505012,505011,604011,604012,605012,605011
1332,504012,504013,505013,505012,604012,604013,605013,605012
1333,504013,504014,505014,505013,604013,604014,605014,605013
1334,504014,504015,505015,505014,604014,604015,605015,605014
1335,504015,504016,505016,505015,604015,604016,605016,605015
1336,504016,504017,505017,505016,604016,604017,605017,605016
1337,504017,504018,505018,505017,604017,604018,605018,605017
1338,504018,504019,505019,505018,604018,604019,605019,605018
1339,504019,504020,505020,505019,604019,604020,605020,605019
1340,504020,504021,505021,505020,604020,604021,605021,605020
1341,505001,505002,506002,506001,605001,605002,606002,606001
1342,505002,505003,506003,506002,605002,605003,606003,606002
1343,505003,505004,506004,506003,605003,605004,606004,606003
1344,505004,505005,506005,506004,605004,605005,606005,606004
1345,505005,505006,506006,506005,605005,605006,606006,606005
1346,505006,505007,506007,506006,605006,605007,606007,606006
1347,505007,505008,506008,506007,605007,605008,606008,606007
1348,505008,505009,506009,506008,605008,605009,606009,606008
1349,505009,505010,506010,506009,605009,605010,606010,606009
1350,505010,505011,506011,506010,605010,605011,606011,606010
1351,505011,505012,506012,506011,605011,605012,606012,606011
1352,505012,505013,506013,506012,605012,605013,606013,606012
1353,505013,505014,506014,506013,605013,605014,606014,606013
1354,505014,505015,506015,506014,605014,605015,606015,606014
1355,505015,505016,506016,506015,605015,605016,606016,606015
1356,505016,505017,506017,506016,605016,605017,606017,606016
1357,505017,505018,506018,506017,605017,605018,606018,606017
1358,505018,505019,506019,506018,605018,605019,606019,606018
1359,505019,505020,506020,506019,605019,605020,606020,606019
1360,505020,505021,506021,506020,605020,605021,606021,606020
1361,506001,506002,507002,507001,606001,606002,607002,607001
1362,506002,506003,507003,507002,606002,606003,607003,607002
1363,506003,506004,507004,507003,606003,606004,607004,607003
1364,506004,506005,507005,507004,606004,606005,607005,607004
1365,506005,506006,507006,507005,606005,606006,607006,607005
1366,506006,506007,507007,507006,606006,606007,607007,607006
1367,506007,506008,507008,507007,606007,606008,607008,607007
1368,506008,506009,507009,507008,606008,606009,607009,607008
1369,506009,506010,507010,507009,606009,606010,607010,607009
1370,506010,506011,507011,507010,606010,606011,607011,607010
1371,506011,506012,507012,507011,606011,606012,607012,607011
1372,506012,506013,507013,507012,606012,606013,607013,607012
1373,506013,506014,507014,507013,606013,606014,607014,607013
1374,506014,506015,507015,507014,606014,606015,607015,607014
1375,506015,506016,507016,507015,606015,606016,607016,607015
1376,506016,506017,507017,507016,606016,606017,607017,607016
1377,506017,506018,507018,507017,606017,606018,607018,607017
1378,506018,506019,507019,507018,606018,606019,607019,607018
1379,506019,506020,507020,507019,606019,606020,607020,607019
1380,506020,506021,507021,507020,606020,606021,607021,607020
1381,507001,507002,508002,508001,607001,607002,608002,608001
1382,507002,507003,508003,508002,607002,607003,608003,608002
1383,507003,507004,508004,508003,607003,607004,608004,608003
1384,507004,507005,508005,508004,607004,607005,608005,608004
1385,507005,507006,508006,508005,607005,607006,608006,608005
1386,507006,507007,508007,508006,607006,607007,608007,608006
1387,507007,507008,508008,508007,607007,607008,608008,608007
1388,507008,507009,508009,508008,607008,607009,608009,608008
1389,507009,507010,508010,508009,607009,607010,608010,608009
1390,507010,507011,508011,508010,607010,607011,608011,608010
1391,507011,507012,508012,508011,607011,607012,608012,608011
1392,507012,507013,508013,508012,607012,607013,608013,608012
1393,507013,507014,508014,508013,607013,607014,608014,608013
1394,507014,507015,508015,508014,607014,607015,608015,608014
1395,507015,507016,508016,508015,607015,607016,608016,608015
1396,507016,507017,508017,508016,607016,607017,608017,608016
1397,507017,507018,508018,508017,607017,607018,608018,608017
1398,507018,507019,508019,508018,607018,607019,608019,608018
1399,507019,507020,508020,508019,607019,607020,608020,608019
1400,507020,507021,508021,508020,607020,607021,608021,608020
1401,508001,508002,509002,509001,608001,608002,609002,609001
1402,508002,508003,509003,509002,608002,608003,609003,609002
1403,508003,508004,509004,509003,608003,608004,609004,609003
1404,508004,508005,509005,509004,608004,608005,609005,609004
1405,508005,508006,509006,509005,608005,608006,609006,609005
1406,508006,508007,509007,509006,608006,608007,609007,609006
1407,508007,508008,509008,509007,608007,608008,609008,609007
1408,508008,508009,509009,509008,608008,608009,609009,609008
1409,508009,508010,509010,509009,608009,608010,609010,609009
1410,508010,508011,509011,509010,608010,608011,609011,609010
1411,508011,508012,509012,509011,608011,608012,609012,609011
1412,508012,508013,509013,509012,608012,608013,609013,609012
1413,508013,508014,509014,509013,608013,608014,609014,609013
1414,508014,508015,509015,509014,608014,608015,609015,609014
1415,508015,508016,509016,509015,608015,608016,609016,609015
1416,508016,508017,509017,509016,608016,608017,609017,609016
1417,508017,508018,509018,509017,608017,608018,609018,609017
1418,508018,508019,509019,509018,608018,608019,609019,609018
1419,508019,508020,509020,509019,608019,608020,609020,609019
1420,508020,508021,509021,509020,608020,608021,609021,609020
1421,509001,509002,510002,510001,609001,609002,610002,610001
1422,509002,509003,510003,510002,609002,609003,610003,610002
1423,509003,509004,510004,510003,609003,609004,610004,610003
1424,509004,509005,510005,510004,609004,609005,610005,610004
1425,509005,509006,510006,510005,609005,609006,610006,610005
1426,509006,509007,510007,510006,609006,609007,610007,610006
1427,509007,509008,510008,510007,609007,609008,610008,610007
1428,509008,509009,510009,510008,609008,609009,610009,610008
1429,509009,509010,510010,510009,609009,609010,610010,610009
1430,509010,509011,510011,510010,609010,609011,610011,610010
1431,509011,509012,510012,510011,609011,609012,610012,610011
1432,509012,509013,510013,510012,609012,609013,610013,610012
1433,509013,509014,510014,510013,609013,609014,610014,610013
1434,509014,509015,510015,510014,609014,609015,610015,610014
1435,509015,509016,510016,510015,609015,609016,610016,610015
1436,509016,509017,510017,510016,609016,609017,610017,610016
1437,509017,509018,510018,510017,609017,609018,610018,610017
1438,509018,509019,510019,510018,609018,609019,610019,610018
1439,509019,509020,510020,510019,609019,609020,610020,610019
1440,509020,509021,510021,510020,609020,609021,610021,610020
1441,510001,510002,511002,511001,610001,610002,611002,611001
1442,510002,510003,511003,511002,610002,610003,611003,611002
1443,510003,510004,511004,511003,610003,610004,611004,611003
1444,510004,510005,511005,511004,610004,610005,611005,611004
1445,510005,510006,511006,511005,610005,610006,611006,611005
1446,510006,510007,511007,511006,610006,610007,611007,611006
1447,510007,510008,511008,511007,610007,610008,611008,611007
1448,510008,510009,511009,511008,610008,610009,611009,611008
1449,510009,510010,511010,511009,610009,610010,611010,611009
1450,510010,510011,511011,511010,610010,610011,611011,611010
1451,510011,510012,511012,511011,610011,610012,611012,611011
1452,510012,510013,511013,511012,610012,610013,611013,611012
1453,510013,510014,511014,511013,610013,610014,611014,611013
1454,510014,510015,511015,511014,610014,610015,611015,611014
1455,510015,510016,511016,511015,610015,610016,611016,611015
1456,510016,510017,511017,511016,610016,610017,611017,611016
1457,510017,510018,511018,511017,610017,610018,611018,611017
1458,510018,510019,511019,511018,610018,610019,611019,611018
1459,510019,510020,511020,511019,610019,610020,611020,611019
1460,510020,510021,511021,511020,610020,610021,611021,611020
1461,511001,511002,512002,512001,611001,611002,612002,612001
1462,511002,511003,512003,512002,611002,611003,612003,612002
1463,511003,511004,512004,512003,611003,611004,612004,612003
1464,511004,511005,512005,512004,611004,611005,612005,612004
1465,511005,511006,512006,512005,611005,611006,612006,612005
1466,511006,511007,512007,512006,611006,611007,612007,612006
1467,511007,511008,512008,512007,611007,611008,612008,612007
1468,511008,511009,512009,512008,611008,611009,612009,612008
1469,511009,511010,512010,512009,611009,611010,612010,612009
1470,511010,511011,512011,512010,611010,611011,612011,612010
1471,511011,511012,512012,512011,611011,611012,612012,612011
1472,511012,511013,512013,512012,611012,611013,612013,612012
1473,511013,511014,512014,512013,611013,611014,612014,612013
1474,511014,511015,512015,512014,611014,611015,612015,612014
1475,511015,511016,512016,512015,611015,611016,612016,612015
1476,511016,511017,512017,512016,611016,611017,612017,612016
1477,511017,511018,512018,512017,611017,611018,612018,612017
1478,511018,511019,512019,512018,611018,611019,612019,612018
1479,511019,511020,512020,512019,611019,611020,612020,612019
1480,511020,511021,512021,512020,611020,611021,612021,612020
1481,512001,512002,513002,513001,612001,612002,613002,613001
1482,512002,512003,513003,513002,612002,612003,613003,613002
1483,512003,512004,513004,513003,612003,612004,613004,613003
1484,512004,512005,513005,513004,612004,612005,613005,613004
1485,512005,512006,513006,513005,612005,612006,613006,613005
1486,512006,512007,513007,513006,612006,612007,613007,613006
1487,512007,512008,513008,513007,612007,612008,613008,613007
1488,512008,512009,513009,513008,612008,612009,613009,613008
1489,512009,512010,513010,513009,612009,612010,613010,613009
1490,512010,512011,513011,513010,612010,612011,613011,613010
1491,512011,512012,513012,513011,612011,612012,613012,613011
1492,512012,512013,513013,513012,612012,612013,613013,613012
1493,512013,512014,513014,513013,612013,612014,613014,613013
1494,512014,512015,513015,513014,612014,612015,613015,613014
1495,512015,512016,513016,513015,612015,612016,613016,613015
1496,512016,512017,513017,513016,612016,612017,613017,613016
1497,512017,512018,513018,513017,612017,612018,613018,613017
1498,512018,512019,513019,513018,612018,612019,613019,613018
1499,512019,512020,513020,513019,612019,612020,613020,613019
1500,512020,512021,513021,513020,612020,612021,613021,613020
1501,513001,513002,514002,514001,613001,613002,614002,614001
1502,513002,513003,514003,514002,613002,613003,614003,614002
1503,513003,513004,514004,514003,613003,613004,614004,614003
1504,513004,513005,514005,514004,613004,613005,614005,614004
1505,513005,513006,514006,514005,613005,613006,614006,614005
1506,513006,513007,514007,514006,613006,613007,614007,614006
1507,513007,513008,514008,514007,613007,613008,614008,614007
1508,513008,513009,514009,514008,613008,613009,614009,614008
1509,513009,513010,514010,514009,613009,613010,614010,614009
1510,513010,513011,514011,514010,613010,613011,614011,614010
1511,513011,513012,514012,514011,613011,613012,614012,614011
1512,513012,513013,514013,514012,613012,613013,614013,614012
1513,513013,513014,514014,514013,613013,613014,614014,614013
1514,513014,513015,514015,514014,613014,613015,614015,614014
1515,513015,513016,514016,514015,613015,613016,614016,614015
1516,513016,513017,514017,514016,613016,613017,614017,614016
1517,513017,513018,514018,514017,613017,613018,614018,614017
1518,513018,513019,514019,514018,613018,613019,614019,614018
1519,513019,513020,514020,514019,613019,613020,614020,614019
1520,513020,513021,514021,514020,613020,613021,614021,614020
1521,514001,514002,515002,515001,614001,614002,615002,615001
1522,514002,514003,515003,515002,614002,614003,615003,615002
1523,514003,514004,515004,515003,614003,614004,615004,615003
1524,514004,514005,515005,515004,614004,614005,615005,615004
1525,514005,514006,515006,515005,614005,614006,615006,615005
1526,514006,514007,515007,515006,614006,614007,615007,615006
1527,514007,514008,515008,515007,614007,614008,615008,615007
1528,514008,514009,515009,515008,614008,614009,615009,615008
1529,514009,514010,515010,515009,614009,614010,615010,615009
1530,514010,514011,515011,515010,614010,614011,615011,615010
1531,514011,514012,515012,515011,614011,614012,615012,615011
1532,514012,514013,515013,515012,614012,614013,615013,615012
1533,514013,514014,515014,515013,614013,614014,615014,615013
1534,514014,514015,515015,515014,614014,614015,615015,615014
1535,514015,514016,515016,515015,614015,614016,615016,615015
1536,514016,514017,515017,515016,614016,614017,615017,615016
1537,514017,514018,515018,515017,614017,614018,615018,615017
1538,514018,514019,515019,515018,614018,614019,615019,615018
1539,514019,514020,515020,515019,614019,614020,615020,615019
1540,514020,514021,515021,515020,614020,614021,615021,615020
1541,515001,515002,516002,516001,615001,615002,616002,616001
1542,515002,515003,516003,516002,615002,615003,616003,616002
1543,515003,515004,516004,516003,615003,615004,616004,616003
1544,515004,515005,516005,516004,615004,615005,616005,616004
1545,515005,515006,516006,516005,615005,615006,616006,616005
1546,515006,515007,516007,516006,615006,615007,616007,616006
1547,515007,515008,516008,516007,615007,615008,616008,616007
1548,515008,515009,516009,516008,615008,615009,616009,616008
1549,515009,515010,516010,516009,615009,615010,616010,616009
1550,515010,515011,516011,516010,615010,615011,616011,616010
1551,515011,515012,516012,516011,615011,615012,616012,616011
1552,515012,515013,516013,516012,615012,615013,616013,616012
1553,515013,515014,516014,516013,615013,615014,616014,616013
1554,515014,515015,516015,516014,615014,615015,616015,616014
1555,515015,515016,516016,516015,615015,615016,616016,616015
1556,515016,515017,516017,516016,615016,615017,616017,616016
1557,515017,515018,516018,516017,615017,615018,616018,616017
1558,515018,515019,516019,516018,615018,615019,616019,616018
1559,515019,515020,516020,516019,615019,615020,616020,616019
1560,515020,515021,516021,516020,615020,615021,616021,616020
1561,516001,516002,517002,517001,616001,616002,617002,617001
1562,516002,516003,517003,517002,616002,616003,617003,617002
1563,516003,516004,517004,517003,616003,616004,617004,617003
1564,516004,516005,517005,517004,616004,616005,617005,617004
1565,516005,516006,517006,517005,616005,616006,617006,617005
1566,516006,516007,517007,517006,616006,616007,617007,617006
1567,516007,516008,517008,517007,616007,616008,617008,617007
1568,516008,516009,517009,517008,616008,616009,617009,617008
1569,516009,516010,517010,517009,616009,616010,617010,617009
1570,516010,516011,517011,517010,616010,616011,617011,617010
1571,516011,516012,517012,517011,616011,616012,617012,617011
1572,516012,516013,517013,517012,616012,616013,617013,617012
1573,516013,516014,517014,517013,616013,616014,617014,617013
1574,516014,516015,517015,517014,616014,616015,617015,617014
1575,516015,516016,517016,517015,616015,616016,617016,617015
1576,516016,516017,517017,517016,616016,616017,617017,617016
1577,516017,516018,517018,517017,616017,616018,617018,617017
1578,516018,516019,517019,517018,616018,616019,617019,617018
1579,516019,516020,517020,517019,616019,616020,617020,617019
1580,516020,516021,517021,517020,616020,616021,617021,617020
1581,517001,517002,518002,518001,617001,617002,618002,618001
1582,517002,517003,518003,518002,617002,617003,618003,618002
1583,517003,517004,518004,518003,617003,617004,618004,618003
1584,517004,517005,518005,518004,617004,617005,618005,618004
1585,517005,517006,518006,518005,617005,617006,618006,618005
1586,517006,517007,518007,518006,617006,617007,618007,618006
1587,517007,517008,518008,518007,617007,617008,618008,618007
1588,517008,517009,518009,518008,617008,617009,618009,618008
1589,517009,517010,518010,518009,617009,617010,618010,618009
1590,517010,517011,518011,518010,617010,617011,618011,618010
1591,517011,517012,518012,518011,617011,617012,618012,618011
1592,517012,517013,518013,518012,617012,617013,618013,618012
1593,517013,517014,518014,518013,617013,617014,618014,618013
1594,517014,517015,518015,518014,617014,617015,618015,618014
1595,517015,517016,518016,518015,617015,617016,618016,618015
1596,517016,517017,518017,518016,617016,617017,618017,618016
1597,517017,517018,518018,518017,617017,617018,618018,618017
1598,517018,517019,518019,518018,617018,617019,618019,618018
1599,517019,517020,518020,518019,617019,617020,618020,618019
1600,517020,517021,518021,518020,617020,617021,618021,618020
1601,518001,518002,519002,519001,618001,618002,619002,619001
1602,518002,518003,519003,519002,618002,618003,619003,619002
1603,518003,518004,519004,519003,618003,618004,619004,619003
1604,518004,518005,519005,519004,618004,618005,619005,619004
1605,518005,518006,519006,519005,618005,618006,619006,619005
1606,518006,518007,519007,519006,618006,618007,619007,619006
1607,518007,518008,519008,519007,618007,618008,619008,619007
1608,518008,518009,519009,519008,618008,618009,619009,619008
1609,518009,518010,519010,519009,618009,618010,619010,619009
1610,518010,518011,519011,519010,618010,618011,619011,619010
1611,518011,518012,519012,519011,618011,618012,619012,619011
1612,518012,518013,519013,519012,618012,618013,619013,619012
1613,518013,518014,519014,519013,618013,618014,619014,619013
1614,518014,518015,519015,519014,618014,618015,619015,619014
1615,518015,518016,519016,519015,618015,618016,619016,619015
1616,518016,518017,519017,519016,618016,618017,619017,619016
1617,518017,518018,519018,519017,618017,618018,619018,619017
1618,518018,518019,519019,519018,618018,618019,619019,619018
1619,518019,518020,519020,519019,618019,618020,619020,619019
1620,518020,518021,519021,519020,618020,618021,619021,619020
1621,519001,519002,520002,520001,619001,619002,620002,620001
1622,519002,519003,520003,520002,619002,619003,620003,620002
1623,519003,519004,520004,520003,619003,619004,620004,620003
1624,519004,519005,520005,520004,619004,619005,620005,620004
1625,519005,519006,520006,520005,619005,619006,620006,620005
1626,519006,519007,520007,520006,619006,619007,620007,620006
1627,519007,519008,520008,520007,619007,619008,620008,620007
1628,519008,519009,520009,520008,619008,619009,620009,620008
1629,519009,519010,520010,520009,619009,619010,620010,620009
1630,519010,519011,520011,520010,619010,619011,620011,620010
1631,519011,519012,520012,520011,619011,619012,620012,620011
1632,519012,519013,520013,520012,619012,619013,620013,620012
1633,519013,519014,520014,520013,619013,619014,620014,620013
1634,519014,519015,520015,520014,619014,619015,620015,620014
1635,519015,519016,520016,520015,619015,619016,620016,620015
1636,519016,519017,520017,520016,619016,619017,620017,620016
1637,519017,519018,520018,520017,619017,619018,620018,620017
1638,519018,519019,520019,520018,619018,619019,620019,620018
1639,519019,519020,520020,520019,619019,619020,620020,620019
1640,519020,519021,520021,520020,619020,619021,620021,620020
1641,701009,701010,702010,702009,801009,801010,802010,802009
1642,701010,701011,702011,702010,801010,801011,802011,802010
1643,701011,701012,702012,702011,801011,801012,802012,802011
1644,701012,701013,702013,702012,801012,801013,802013,802012
1645,702007,702008,703008,703007,802007,802008,803008,803007
1646,702008,702009,703009,703008,802008,802009,803009,803008
1647,702009,702010,703010,703009,802009,802010,803010,803009
1648,702010,702011,703011,703010,802010,802011,803011,803010
1649,702011,702012,703012,703011,802011,802012,803012,803011
1650,702012,702013,703013,703012,802012,802013,803013,803012
1651,702013,702014,703014,703013,802013,802014,803014,803013
1652,702014,702015,703015,703014,802014,802015,803015,803014
1653,703005,703006,704006,704005,803005,803006,804006,804005
1654,703006,703007,704007,704006,803006,803007,804007,804006
1655,703007,703008,704008,704007,803007,803008,804008,804007
1656,703008,703009,704009,704008,803008,803009,804009,804008
1657,703009,703010,704010,704009,803009,803010,804010,804009
1658,703010,703011,704011,704010,803010,803011,804011,804010
1659,703011,703012,704012,704011,803011,803012,804012,804011
1660,703012,703013,704013,704012,803012,803013,804013,804012
1661,703013,703014,704014,704013,803013,803014,804014,804013
1662,703014,703015,704015,704014,803014,803015,804015,804014
1663,703015,703016,704016,704015,803015,803016,804016,804015
1664,703016,703017,704017,704016,803016,803017,804017,804016
1665,704004,704005,705005,705004,804004,804005,805005,805004
1666,704005,704006,705006,705005,804005,804006,805006,805005
1667,704006,704007,705007,705006,804006,804007,805007,805006
1668,704007,704008,705008,705007,804007,804008,805008,805007
1669,704008,704009,705009,705008,804008,804009,805009,805008
1670,704009,704010,705010,705009,804009,804010,805010,805009
1671,704010,704011,705011,705010,804010,804011,805011,805010
1672,704011,704012,705012,705011,804011,804012,805012,805011
1673,704012,704013,705013,705012,804012,804013,805013,805012
1674,704013,704014,705014,705013,804013,804014,805014,805013
1675,704014,704015,705015,705014,804014,804015,805015,805014
1676,704015,704016,705016,705015,804015,804016,805016,805015
1677,704016,704017,705017,705016,804016,804017,805017,805016
1678,704017,704018,705018,705017,804017,804018,805018,805017
1679,705004,705005,706005,706004,805004,805005,806005,806004
1680,705005,705006,706006,706005,805005,805006,806006,806005
1681,705006,705007,706007,706006,805006,805007,806007,806006
1682,705007,705008,706008,706007,805007,805008,806008,806007
1683,705008,705009,706009,706008,805008,805009,806009,806008
1684,705009,705010,706010,706009,805009,805010,806010,806009
1685,705010,705011,706011,706010,805010,805011,806011,806010
1686,705011,705012,706012,706011,805011,805012,806012,806011
1687,705012,705013,706013,706012,805012,805013,806013,806012
1688,705013,705014,706014,706013,805013,805014,806014,806013
1689,705014,705015,706015,706014,805014,805015,806015,806014
1690,705015,705016,706016,706015,805015,805016,806016,806015
1691,705016,705017,706017,706016,805016,805017,806017,806016
1692,705017,705018,706018,706017,805017,805018,806018,806017
1693,706003,706004,707004,707003,806003,806004,807004,807003
1694,706004,706005,707005,707004,806004,806005,807005,807004
1695,706005,706006,707006,707005,806005,806006,807006,807005
1696,706006,706007,707007,707006,806006,806007,807007,807006
1697,706007,706008,707008,707007,806007,806008,807008,807007
1698,706008,706009,707009,707008,806008,806009,807009,807008
1699,706009,706010,707010,707009,806009,806010,807010,807009
1700,706010,706011,707011,707010,806010,806011,807011,807010
1701,706011,706012,707012,707011,806011,806012,807012,807011
1702,706012,706013,707013,707012,806012,806013,807013,807012
1703,706013,706014,707014,707013,806013,806014,807014,807013
1704,706014,706015,707015,707014,806014,806015,807015,807014
1705,706015,706016,707016,707015,806015,806016,807016,807015
1706,706016,706017,707017,707016,806016,806017,807017,807016
1707,706017,706018,707018,707017,806017,806018,807018,807017
1708,706018,706019,707019,707018,806018,806019,807019,807018
1709,707003,707004,708004,708003,807003,807004,808004,808003
1710,707004,707005,708005,708004,807004,807005,808005,808004
1711,707005,707006,708006,708005,807005,807006,808006,808005
1712,707006,707007,708007,708006,807006,807007,808007,808006
1713,707007,707008,708008,708007,807007,807008,808008,808007
1714,707008,707009,708009,708008,807008,807009,808009,808008
1715,707013,707014,708014,708013,807013,807014,808014,808013
1716,707014,707015,708015,708014,807014,807015,808015,808014
1717,707015,707016,708016,708015,807015,807016,808016,808015
1718,707016,707017,708017,708016,807016,807017,808017,808016
1719,707017,707018,708018,708017,807017,807018,808018,808017
1720,707018,707019,708019,708018,807018,807019,808019,808018
1721,708002,708003,709003,709002,808002,808003,809003,809002
1722,708003,708004,709004,709003,808003,808004,809004,809003
1723,708004,708005,709005,709004,808004,808005,809005,809004
1724,708005,708006,709006,709005,808005,808006,809006,809005
1725,708006,708007,709007,709006,808006,808007,809007,809006
1726,708007,708008,709008,709007,808007,808008,809008,809007
1727,708014,708015,709015,709014,808014,808015,809015,809014
1728,708015,708016,709016,709015,808015,808016,809016,809015
1729,708016,708017,709017,709016,808016,808017,809017,809016
1730,708017,708018,709018,709017,808017,808018,809018,809017
1731,708018,708019,709019,709018,808018,808019,809019,809018
1732,708019,708020,709020,709019,808019,808020,809020,809019
1733,709002,709003,710003,710002,809002,809003,810003,810002
1734,709003,709004,710004,710003,809003,809004,810004,810003
1735,709004,709005,710005,710004,809004,809005,810005,810004
1736,709005,709006,710006,710005,809005,809006,810006,810005
1737,709006,709007,710007,710006,809006,809007,810007,810006
1738,709007,709008,710008,710007,809007,809008,810008,810007
1739,709014,709015,710015,710014,809014,809015,810015,810014
1740,709015,709016,710016,710015,809015,809016,810016,810015
1741,709016,709017,710017,710016,809016,809017,810017,810016
1742,709017,709018,710018,710017,809017,809018,810018,810017
1743,709018,709019,710019,710018,809018,809019,810019,810018
1744,709019,709020,710020,710019,809019,809020,810020,810019
1745,710002,710003,711003,711002,810002,810003,811003,811002
1746,710003,710004,711004,711003,810003,810004,811004,811003
1747,710004,710005,711005,711004,810004,810005,811005,811004
1748,710005,710006,711006,711005,810005,810006,811006,811005
1749,710006,710007,711007,711006,810006,810007,811007,811006
1750,710007,710008,711008,711007,810007,810008,811008,811007
1751,710014,710015,711015,711014,810014,810015,811015,811014
1752,710015,710016,711016,711015,810015,810016,811016,811015
1753,710016,710017,711017,711016,810016,810017,811017,811016
1754,710017,710018,711018,711017,810017,810018,811018,811017
1755,710018,710019,711019,711018,810018,810019,811019,811018
1756,710019,710020,711020,711019,810019,810020,811020,811019
1757,711002,711003,712003,712002,811002,811003,812003,812002
1758,711003,711004,712004,712003,811003,811004,812004,812003
1759,711004,711005,712005,712004,811004,811005,812005,812004
1760,711005,711006,712006,712005,811005,811006,812006,812005
1761,711006,711007,712007,712006,811006,811007,812007,812006
1762,711007,711008,712008,712007,811007,811008,812008,812007
1763,711014,711015,712015,712014,811014,811015,812015,812014
1764,711015,711016,712016,712015,811015,811016,812016,812015
1765,711016,711017,712017,712016,811016,811017,812017,812016
1766,711017,711018,712018,712017,811017,811018,812018,812017
1767,711018,711019,712019,712018,811018,811019,812019,812018
1768,711019,711020,712020,712019,811019,811020,812020,812019
1769,712003,712004,713004,713003,812003,812004,813004,813003
1770,712004,712005,713005,713004,812004,812005,813005,813004
1771,712005,712006,713006,713005,812005,812006,813006,813005
1772,712006,712007,713007,713006,812006,812007,813007,813006
1773,712007,712008,713008,713007,812007,812008,813008,813007
1774,712008,712009,713009,713008,812008,812009,813009,813008
1775,712013,712014,713014,713013,812013,812014,813014,813013
1776,712014,712015,713015,713014,812014,812015,813015,813014
1777,712015,712016,713016,713015,812015,812016,813016,813015
1778,712016,712017,713017,713016,812016,812017,813017,813016
1779,712017,712018,713018,713017,812017,812018,813018,813017
1780,712018,712019,713019,713018,812018,812019,813019,813018
1781,713003,713004,714004,714003,813003,813004,814004,814003
1782,713004,713005,714005,714004,813004,813005,814005,814004
1783,713005,713006,714006,714005,813005,813006,814006,814005
1784,713006,713007,714007,714006,813006,813007,814007,814006
1785,713007,713008,714008,714007,813007,813008,814008,814007
1786,713008,713009,714009,714008,813008,813009,814009,814008
1787,713009,713010,714010,714009,813009,813010,814010,814009
1788,713010,713011,714011,714010,813010,813011,814011,814010
1789,713011,713012,714012,714011,813011,813012,814012,814011
1790,713012,713013,714013,714012,813012,813013,814013,814012
1791,713013,713014,714014,714013,813013,813014,814014,814013
1792,713014,713015,714015,714014,813014,813015,814015,814014
1793,713015,713016,714016,714015,813015,813016,814016,814015
1794,713016,713017,714017,714016,813016,813017,814017,814016
1795,713017,713018,714018,714017,813017,813018,814018,814017
1796,713018,713019,714019,714018,813018,813019,814019,814018
1797,714004,714005,715005,715004,814004,814005,815005,815004
1798,714005,714006,715006,715005,814005,814006,815006,815005
1799,714006,714007,715007,715006,814006,814007,815007,815006
1800,714007,714008,715008,715007,814007,814008,815008,815007
1801,714008,714009,715009,715008,814008,814009,815009,815008
1802,714009,714010,715010,715009,814009,814010,815010,815009
1803,714010,714011,715011,715010,814010,814011,815011,815010
1804,714011,714012,715012,715011,814011,814012,815012,815011
1805,714012,714013,715013,715012,814012,814013,815013,815012
1806,714013,714014,715014,715013,814013,814014,815014,815013
1807,714014,714015,715015,715014,814014,814015,815015,815014
1808,714015,714016,715016,715015,814015,814016,815016,815015
1809,714016,714017,715017,715016,814016,814017,815017,815016
1810,714017,714018,715018,715017,814017,814018,815018,815017
1811,715004,715005,716005,716004,815004,815005,816005,816004
1812,715005,715006,716006,716005,815005,815006,816006,816005
1813,715006,715007,716007,716006,815006,815007,816007,816006
1814,715007,715008,716008,716007,815007,815008,816008,816007
1815,715008,715009,716009,716008,815008,815009,816009,816008
1816,715009,715010,716010,716009,815009,815010,816010,816009
1817,715010,715011,716011,716010,815010,815011,816011,816010
1818,715011,715012,716012,716011,815011,815012,816012,816011
1819,715012,715013,716013,716012,815012,815013,816013,816012
1820,715013,715014,716014,716013,815013,815014,816014,816013
1821,715014,715015,716015,716014,815014,815015,816015,816014
1822,715015,715016,716016,716015,815015,815016,816016,816015
1823,715016,715017,716017,716016,815016,815017,816017,816016
1824,715017,715018,716018,716017,815017,815018,816018,816017
1825,716005,716006,717006,717005,816005,816006,817006,817005
1826,716006,716007,717007,717006,816006,816007,817007,817006
1827,716007,716008,717008,717007,816007,816008,817008,817007
1828,716008,716009,717009,717008,816008,816009,817009,817008
1829,716009,716010,717010,717009,816009,816010,817010,817009
1830,716010,716011,717011,717010,816010,816011,817011,817010
1831,716011,716012,717012,717011,816011,816012,817012,817011
1832,716012,716013,717013,717012,816012,816013,817013,817012
1833,716013,716014,717014,717013,816013,816014,817014,817013
1834,716014,716015,717015,717014,816014,816015,817015,817014
1835,716015,716016,717016,717015,816015,816016,817016,817015
1836,716016,716017,717017,717016,816016,816017,817017,817016
1837,717007,717008,718008,718007,817007,817008,818008,818007
1838,717008,717009,718009,718008,817008,817009,818009,818008
1839,717009,717010,718010,718009,817009,817010,818010,818009
1840,717010,717011,718011,718010,817010,817011,818011,818010
1841,717011,717012,718012,718011,817011,817012,818012,818011
1842,717012,717013,718013,718012,817012,817013,818013,818012
1843,717013,717014,718014,718013,817013,817014,818014,818013
1844,717014,717015,718015,718014,817014,817015,818015,818014
1845,718009,718010,719010,719009,818009,818010,819010,819009
1846,718010,718011,719011,719010,818010,818011,819011,819010
1847,718011,718012,719012,719011,818011,818012,819012,819011
1848,718012,718013,719013,719012,818012,818013,819013,819012
1849,801009,801010,802010,802009,901009,901010,902010,902009
1850,801010,801011,802011,802010,901010,901011,902011,902010
1851,801011,801012,802012,802011,901011,901012,902012,902011
1852,801012,801013,802013,802012,901012,901013,902013,902012
1853,802007,802008,803008,803007,902007,902008,903008,903007
1854,802008,802009,803009,803008,902008,902009,903009,903008
1855,802009,802010,803010,803009,902009,902010,903010,903009
1856,802010,802011,803011,803010,902010,902011,903011,903010
1857,802011,802012,803012,803011,902011,902012,903012,903011
1858,802012,802013,803013,803012,902012,902013,903013,903012
1859,802013,802014,803014,803013,902013,902014,903014,903013
1860,802014,802015,803015,803014,902014,902015,903015,903014
1861,803005,803006,804006,804005,903005,903006,904006,904005
1862,803006,803007,804007,804006,903006,903007,904007,904006
1863,803007,803008,804008,804007,903007,903008,904008,904007
1864,803008,803009,804009,804008,903008,903009,904009,904008
1865,803009,803010,804010,804009,903009,903010,904010,904009
1866,803010,803011,804011,804010,903010,903011,904011,904010
1867,803011,803012,804012,804011,903011,903012,904012,904011
1868,803012,803013,804013,804012,903012,903013,904013,904012
1869,803013,803014,804014,804013,903013,903014,904014,904013
1870,803014,803015,804015,804014,903014,903015,904015,904014
1871,803015,803016,804016,804015,903015,903016,904016,904015
1872,803016,803017,804017,804016,903016,903017,904017,904016
1873,804004,804005,805005,805004,904004,904005,905005,905004
1874,804005,804006,805006,805005,904005,904006,905006,905005
1875,804006,804007,805007,805006,904006,904007,905007,905006
1876,804007,804008,805008,805007,904007,904008,905008,905007
1877,804008,804009,805009,805008,904008,904009,905009,905008
1878,804009,804010,805010,805009,904009,904010,905010,905009
1879,804010,804011,805011,805010,904010,904011,905011,905010
1880,804011,804012,805012,805011,904011,904012,905012,905011
1881,804012,804013,805013,805012,904012,904013,905013,905012
1882,804013,804014,805014,805013,904013,904014,905014,905013
1883,804014,804015,805015,805014,904014,904015,905015,905014
1884,804015,804016,805016,805015,904015,904016,905016,905015
1885,804016,804017,805017,805016,904016,904017,905017,905016
1886,804017,804018,805018,805017,904017,904018,905018,905017
1887,805004,805005,806005,806004,905004,905005,906005,906004
1888,805005,805006,806006,806005,905005,905006,906006,906005
1889,805006,805007,806007,806006,905006,905007,906007,906006
1890,805007,805008,806008,806007,905007,905008,906008,906007
1891,805008,805009,806009,806008,905008,905009,906009,906008
1892,805009,805010,806010,806009,905009,905010,906010,906009
1893,805010,805011,806011,806010,905010,905011,906011,906010
1894,805011,805012,806012,806011,905011,905012,906012,906011
1895,805012,805013,806013,806012,905012,905013,906013,906012
1896,805013,805014,806014,806013,905013,905014,906014,906013
1897,805014,805015,806015,806014,905014,905015,906015,906014
1898,805015,805016,806016,806015,905015,905016,906016,906015
1899,805016,805017,806017,806016,905016,905017,906017,906016
1900,805017,805018,806018,806017,905017,905018,906018,906017
1901,806003,806004,807004,807003,906003,906004,907004,907003
1902,806004,806005,807005,807004,906004,906005,907005,907004
1903,806005,806006,807006,807005,906005,906006,907006,907005
1904,806006,806007,807007,807006,906006,906007,907007,907006
1905,806007,806008,807008,807007,906007,906008,907008,907007
1906,806008,806009,807009,807008,906008,906009,907009,907008
1907,806009,806010,807010,807009,906009,906010,907010,907009
1908,806010,806011,807011,807010,906010,906011,907011,907010
1909,806011,806012,807012,807011,906011,906012,907012,907011
1910,806012,806013,807013,807012,906012,906013,907013,907012
1911,806013,806014,807014,807013,906013,906014,907014,907013
1912,806014,806015,807015,807014,906014,906015,907015,907014
1913,806015,806016,807016,807015,906015,906016,907016,907015
1914,806016,806017,807017,807016,906016,906017,907017,907016
1915,806017,806018,807018,807017,906017,906018,907018,907017
1916,806018,806019,807019,807018,906018,906019,907019,907018
1917,807003,807004,808004,808003,907003,907004,908004,908003
1918,807004,807005,808005,808004,907004,907005,908005,908004
1919,807005,807006,808006,808005,907005,907006,908006,908005
1920,807006,807007,808007,808006,907006,907007,908007,908006
1921,807007,807008,808008,808007,907007,907008,908008,908007
1922,807008,807009,808009,808008,907008,907009,908009,908008
1923,807013,807014,808014,808013,907013,907014,908014,908013
1924,807014,807015,808015,808014,907014,907015,908015,908014
1925,807015,807016,808016,808015,907015,907016,908016,908015
1926,807016,807017,808017,808016,907016,907017,908017,908016
1927,807017,807018,808018,808017,907017,907018,908018,908017
1928,807018,807019,808019,808018,907018,907019,908019,908018
1929,808002,808003,809003,809002,908002,908003,909003,909002
1930,808003,808004,809004,809003,908003,908004,909004,909003
1931,808004,808005,809005,809004,908004,908005,909005,909004
1932,808005,808006,809006,809005,908005,908006,909006,909005
1933,808006,808007,809007,809006,908006,908007,909007,909006
1934,808007,808008,809008,809007,908007,908008,909008,909007
1935,808014,808015,809015,809014,908014,908015,909015,909014
1936,808015,808016,809016,809015,908015,908016,909016,909015
1937,808016,808017,809017,809016,908016,908017,909017,909016
1938,808017,808018,809018,809017,908017,908018,909018,909017
1939,808018,808019,809019,809018,908018,908019,909019,909018
1940,808019,808020,809020,809019,908019,908020,909020,909019
1941,809002,809003,810003,810002,909002,909003,910003,910002
1942,809003,809004,810004,810003,909003,909004,910004,910003
1943,809004,809005,810005,810004,909004,909005,910005,910004
1944,809005,809006,810006,810005,909005,909006,910006,910005
1945,809006,809007,810007,810006,909006,909007,910007,910006
1946,809007,809008,810008,810007,909007,909008,910008,910007
1947,809014,809015,810015,810014,909014,909015,910015,910014
1948,809015,809016,810016,810015,909015,909016,910016,910015
1949,809016,809017,810017,810016,909016,909017,910017,910016
1950,809017,809018,810018,810017,909017,909018,910018,910017
1951,809018,809019,810019,810018,909018,909019,910019,910018
1952,809019,809020,810020,810019,909019,909020,910020,910019
1953,810002,810003,811003,811002,910002,910003,911003,911002
1954,810003,810004,811004,811003,910003,910004,911004,911003
1955,810004,810005,811005,811004,910004,910005,911005,911004
1956,810005,810006,811006,811005,910005,910006,911006,911005
1957,810006,810007,811007,811006,910006,910007,911007,911006
1958,810007,810008,811008,811007,910007,910008,911008,911007
1959,810014,810015,811015,811014,910014,910015,911015,911014
1960,810015,810016,811016,811015,910015,910016,911016,911015
1961,810016,810017,811017,811016,910016,910017,911017,911016
1962,810017,810018,811018,811017,910017,910018,911018,911017
1963,810018,810019,811019,811018,910018,910019,911019,911018
1964,810019,810020,811020,811019,910019,910020,911020,911019
1965,811002,811003,812003,812002,911002,911003,912003,912002
1966,811003,811004,812004,812003,911003,911004,912004,912003
1967,811004,811005,812005,812004,911004,911005,912005,912004
1968,811005,811006,812006,812005,911005,911006,912006,912005
1969,811006,811007,812007,812006,911006,911007,912007,912006
1970,811007,811008,812008,812007,911007,911008,912008,912007
1971,811014,811015,812015,812014,911014,911015,912015,912014
1972,811015,811016,812016,812015,911015,911016,912016,912015
1973,811016,811017,812017,812016,911016,911017,912017,912016
1974,811017,811018,812018,812017,911017,911018,912018,912017
1975,811018,811019,812019,812018,911018,911019,912019,912018
1976,811019,811020,812020,812019,911019,911020,912020,912019
1977,812003,812004,813004,813003,912003,912004,913004,913003
1978,812004,812005,813005,813004,912004,912005,913005,913004
1979,812005,812006,813006,813005,912005,912006,913006,913005
1980,812006,812007,813007,813006,912006,912007,913007,913006
1981,812007,812008,813008,813007,912007,912008,913008,913007
1982,812008,812009,813009,813008,912008,912009,913009,913008
1983,812013,812014,813014,813013,912013,912014,913014,913013
1984,812014,812015,813015,813014,912014,912015,913015,913014
1985,812015,812016,813016,813015,912015,912016,913016,913015
1986,812016,812017,813017,813016,912016,912017,913017,913016
1987,812017,812018,813018,813017,912017,912018,913018,913017
1988,812018,812019,813019,813018,912018,912019,913019,913018
1989,813003,813004,814004,814003,913003,913004,914004,914003
1990,813004,813005,814005,814004,913004,913005,914005,914004
1991,813005,813006,814006,814005,913005,913006,914006,914005
1992,813006,813007,814007,814006,913006,913007,914007,914006
1993,813007,813008,814008,814007,913007,913008,914008,914007
1994,813008,813009,814009,814008,913008,913009,914009,914008
1995,813009,813010,814010,814009,913009,913010,914010,914009
1996,813010,813011,814011,814010,913010,913011,914011,914010
1997,813011,813012,814012,814011,913011,913012,914012,914011
1998,813012,813013,814013,814012,913012,913013,914013,914012
1999,813013,813014,814014,814013,913013,913014,914014,914013
2000,813014,813015,814015,814014,913014,913015,914015,914014
2001,813015,813016,814016,814015,913015,913016,914016,914015
2002,813016,813017,814017,814016,913016,913017,914017,914016
2003,813017,813018,814018,814017,913017,913018,914018,914017
2004,813018,813019,814019,814018,913018,913019,914019,914018
2005,814004,814005,815005,815004,914004,914005,915005,915004
2006,814005,814006,815006,815005,914005,914006,915006,915005
2007,814006,814007,815007,815006,914006,914007,915007,915006
2008,814007,814008,815008,815007,914007,914008,915008,915007
2009,814008,814009,815009,815008,914008,914009,915009,915008
2010,814009,814010,815010,815009,914009,914010,915010,915009
2011,814010,814011,815011,815010,914010,914011,915011,915010
2012,814011,814012,815012,815011,914011,914012,915012,915011
2013,814012,814013,815013,815012,914012,914013,915013,915012
2014,814013,814014,815014,815013,914013,914014,915014,915013
2015,814014,814015,815015,815014,914014,914015,915015,915014
2016,814015,814016,815016,815015,914015,914016,915016,915015
2017,814016,814017,815017,815016,914016,914017,915017,915016
2018,814017,814018,815018,815017,914017,914018,915018,915017
2019,815004,815005,816005,816004,915004,915005,916005,916004
2020,815005,815006,816006,816005,915005,915006,916006,916005
2021,815006,815007,816007,816006,915006,915007,916007,916006
2022,815007,815008,816008,816007,915007,915008,916008,916007
2023,815008,815009,816009,816008,915008,915009,916009,916008
2024,815009,815010,816010,816009,915009,915010,916010,916009
2025,815010,815011,816011,816010,915010,915011,916011,916010
2026,815011,815012,816012,816011,915011,915012,916012,916011
2027,815012,815013,816013,816012,915012,915013,916013,916012
2028,815013,815014,816014,816013,915013,915014,916014,916013
2029,815014,815015,816015,816014,915014,915015,916015,916014
2030,815015,815016,816016,816015,915015,915016,916016,916015
2031,815016,815017,816017,816016,915016,915017,916017,916016
2032,815017,815018,816018,816017,915017,915018,916018,916017
2033,816005,816006,817006,817005,916005,916006,917006,917005
2034,816006,816007,817007,817006,916006,916007,917007,917006
2035,816007,816008,817008,817007,916007,916008,917008,917007
2036,816008,816009,817009,817008,916008,916009,917009,917008
2037,816009,816010,817010,817009,916009,916010,917010,917009
2038,816010,816011,817011,817010,916010,916011,917011,917010
2039,816011,816012,817012,817011,916011,916012,917012,917011
2040,816012,816013,817013,817012,916012,916013,917013,917012
2041,816013,816014,817014,817013,916013,916014,917014,917013
2042,816014,816015,817015,817014,916014,916015,917015,917014
2043,816015,816016,817016,817015,916015,916016,917016,917015
2044,816016,816017,817017,817016,916016,916017,917017,917016
2045,817007,817008,818008,818007,917007,917008,918008,918007
2046,817008,817009,818009,818008,917008,917009,918009,918008
2047,817009,817010,818010,818009,917009,917010,918010,918009
2048,817010,817011,818011,818010,917010,917011,918011,918010
2049,817011,817012,818012,818011,917011,917012,918012,918011
2050,817012,817013,818013,818012,917012,917013,918013,918012
2051,817013,817014,818014,818013,917013,917014,918014,918013
2052,817014,817015,818015,818014,917014,917015,918015,918014
2053,818009,818010,819010,819009,918009,918010,919010,919009
2054,818010,818011,819011,819010,918010,918011,919011,919010
2055,818011,818012,819012,819011,918011,918012,919012,919011
2056,818012,818013,819013,819012,918012,918013,919013,919012
*ELSET,ELSET=EBRIDGE
1,2,3,4,5,6,7,8,9,10,11,12,13,14,15,16
17,18,19,20,21,22,23,24,25,26,27,28,29,30,31,32
33,34,35,36,37,38,39,40,41,42,43,44,45,46,47,48
49,50,51,52,53,54,55,56,57,58,59,60,61,62,63,64
65,66,67,68,69,70,71,72,73,74,75,76,77,78,79,80
81,82,83,84,85,86,87,88,89,90,91,92,93,94,95,96
97,98,99,100,101,102,103,104,105,106,107,108,109,110,111,112
113,114,115,116,117,118,119,120,121,122,123,124,125,126,127,128
129,130,131,132,133,134,135,136,137,138,139,140,141,142,143,144
145,146,147,148,149,150,151,152,153,154,155,156,157,158,159,160
161,162,163,164,165,166,167,168,169,170,171,172,173,174,175,176
177,178,179,180,181,182,183,184,185,186,187,188,189,190,191,192
193,194,195,196,197,198,199,200,201,202,203,204,205,206,207,208
209,210,211,212,213,214,215,216,217,218,219,220,221,222,223,224
225,226,227,228,229,230,231,232,233,234,235,236,237,238,239,240
241,242,243,244,245,246,247,248,249,250,251,252,253,254,255,256
257,258,259,260,261,262,263,264,265,266,267,268,269,270,271,272
273,274,275,276,277,278,279,280,281,282,283,284,285,286,287,288
289,290,291,292,293,294,295,296,297,298,299,300,301,302,303,304
305,306,307,308,309,310,311,312,313,314,315,316,317,318,319,320
321,322,323,324,325,326,327,328,329,330,331,332,333,334,335,336
337,338,339,340,341,342,343,344,345,346,347,348,349,350,351,352
353,354,355,356,357,358,359,360,361,362,363,364,365,366,367,368
369,370,371,372,373,374,375,376,377,378,379,380,381,382,383,384
385,386,387,388,389,390,391,392,393,394,395,396,397,398,399,400
401,402,403,404,405,406,407,408,409,410,411,412,413,414,415,416
417,418,419,420,421,422,423,424,425,426,427,428,429,430,431,432
433,434,435,436,437,438,439,440,441,442,443,444,445,446,447,448
449,450,451,452,453,454,455,456,457,458,459,460,461,462,463,464
465,466,467,468,469,470,471,472,473,474,475,476,477,478,479,480
481,482,483,484,485,486,487,488,489,490,491,492,493,494,495,496
497,498,499,500,501,502,503,504,505,506,507,508,509,510,511,512
513,514,515,516,517,518,519,520,521,522,523,524,525,526,527,528
529,530,531,532,533,534,535,536,537,538,539,540,541,542,543,544
545,546,547,548,549,550,551,552,553,554,555,556,557,558,559,560
561,562,563,564,565,566,567,568,569,570,571,572,573,574,575,576
577,578,579,580,581,582,583,584,585,586,587,588,589,590,591,592
593,594,595,596,597,598,599,600,601,602,603,604,605,606,607,608
609,610,611,612,613,614,615,616,617,618,619,620,621,622,623,624
625,626,627,628,629,630,631,632,633,634,635,636,637,638,639,640
641,642,643,644,645,646,647,648,649,650,651,652,653,654,655,656
657,658,659,660,661,662,663,664,665,666,667,668,669,670,671,672
673,674,675,676,677,678,679,680,681,682,683,684,685,686,687,688
689,690,691,692,693,694,695,696,697,698,699,700,701,702,703,704
705,706,707,708,709,710,711,712,713,714,715,716,717,718,719,720
721,722,723,724,725,726,727,728,729,730,731,732,733,734,735,736
*ELSET,ELSET=ESTAGEB
737,738,739,740,741,742,743,744,745,746,747,748,749,750,751,752
753,754,755,756,757,758,759,760,761,762,763,764,765,766,767,768
769,770,771,772,773,774,775,776,777,778,779,780,781,782,783,784
785,786,787,788,789,790,791,792,793,794,795,796,797,798,799,800
801,802,803,804,805,806,807,808,809,810,811,812,813,814,815,816
817,818,819,820,821,822,823,824,825,826,827,828,829,830,831,832
833,834,835,836,837,838,839,840,841,842,843,844,845,846,847,848
849,850,851,852,853,854,855,856,857,858,859,860,861,862,863,864
865,866,867,868,869,870,871,872,873,874,875,876,877,878,879,880
881,882,883,884,885,886,887,888,889,890,891,892,893,894,895,896
897,898,899,900,901,902,903,904,905,906,907,908,909,910,911,912
913,914,915,916,917,918,919,920,921,922,923,924,925,926,927,928
929,930,931,932,933,934,935,936,937,938,939,940,941,942,943,944
945,946,947,948,949,950,951,952,953,954,955,956,957,958,959,960
961,962,963,964,965,966,967,968,969,970,971,972,973,974,975,976
977,978,979,980,981,982,983,984,985,986,987,988,989,990,991,992
993,994,995,996,997,998,999,1000,1001,1002,1003,1004,1005,1006,1007,1008
1009,1010,1011,1012,1013,1014,1015,1016,1017,1018,1019,1020,1021,1022,1023,1024
1025,1026,1027,1028,1029,1030,1031,1032,1033,1034,1035,1036,1037,1038,1039,1040
1041,1042,1043,1044,1045,1046,1047,1048,1049,1050,1051,1052,1053,1054,1055,1056
1057,1058,1059,1060,1061,1062,1063,1064,1065,1066,1067,1068,1069,1070,1071,1072
1073,1074,1075,1076,1077,1078,1079,1080,1081,1082,1083,1084,1085,1086,1087,1088
1089,1090,1091,1092,1093,1094,1095,1096,1097,1098,1099,1100,1101,1102,1103,1104
1105,1106,1107,1108,1109,1110,1111,1112,1113,1114,1115,1116,1117,1118,1119,1120
1121,1122,1123,1124,1125,1126,1127,1128,1129,1130,1131,1132,1133,1134,1135,1136
1137,1138,1139,1140,1141,1142,1143,1144,1145,1146,1147,1148,1149,1150,1151,1152
1153,1154,1155,1156,1157,1158,1159,1160,1161,1162,1163,1164,1165,1166,1167,1168
1169,1170,1171,1172,1173,1174,1175,1176,1177,1178,1179,1180,1181,1182,1183,1184
1185,1186,1187,1188,1189,1190,1191,1192,1193,1194,1195,1196,1197,1198,1199,1200
1201,1202,1203,1204,1205,1206,1207,1208,1209,1210,1211,1212,1213,1214,1215,1216
1217,1218,1219,1220,1221,1222,1223,1224,1225,1226,1227,1228,1229,1230,1231,1232
1233,1234,1235,1236,1237,1238,1239,1240,1241,1242,1243,1244,1245,1246,1247,1248
1249,1250,1251,1252,1253,1254,1255,1256,1257,1258,1259,1260,1261,1262,1263,1264
1265,1266,1267,1268,1269,1270,1271,1272,1273,1274,1275,1276,1277,1278,1279,1280
1281,1282,1283,1284,1285,1286,1287,1288,1289,1290,1291,1292,1293,1294,1295,1296
1297,1298,1299,1300,1301,1302,1303,1304,1305,1306,1307,1308,1309,1310,1311,1312
1313,1314,1315,1316,1317,1318,1319,1320,1321,1322,1323,1324,1325,1326,1327,1328
1329,1330,1331,1332,1333,1334,1335,1336,1337,1338,1339,1340,1341,1342,1343,1344
1345,1346,1347,1348,1349,1350,1351,1352,1353,1354,1355,1356,1357,1358,1359,1360
1361,1362,1363,1364,1365,1366,1367,1368,1369,1370,1371,1372,1373,1374,1375,1376
1377,1378,1379,1380,1381,1382,1383,1384,1385,1386,1387,1388,1389,1390,1391,1392
1393,1394,1395,1396,1397,1398,1399,1400,1401,1402,1403,1404,1405,1406,1407,1408
1409,1410,1411,1412,1413,1414,1415,1416,1417,1418,1419,1420,1421,1422,1423,1424
1425,1426,1427,1428,1429,1430,1431,1432,1433,1434,1435,1436,1437,1438,1439,1440
1441,1442,1443,1444,1445,1446,1447,1448,1449,1450,1451,1452,1453,1454,1455,1456
1457,1458,1459,1460,1461,1462,1463,1464,1465,1466,1467,1468,1469,1470,1471,1472
1473,1474,1475,1476,1477,1478,1479,1480,1481,1482,1483,1484,1485,1486,1487,1488
1489,1490,1491,1492,1493,1494,1495,1496,1497,1498,1499,1500,1501,1502,1503,1504
1505,1506,1507,1508,1509,1510,1511,1512,1513,1514,1515,1516,1517,1518,1519,1520
1521,1522,1523,1524,1525,1526,1527,1528,1529,1530,1531,1532,1533,1534,1535,1536
1537,1538,1539,1540,1541,1542,1543,1544,1545,1546,1547,1548,1549,1550,1551,1552
1553,1554,1555,1556,1557,1558,1559,1560,1561,1562,1563,1564,1565,1566,1567,1568
1569,1570,1571,1572,1573,1574,1575,1576,1577,1578,1579,1580,1581,1582,1583,1584
1585,1586,1587,1588,1589,1590,1591,1592,1593,1594,1595,1596,1597,1598,1599,1600
1601,1602,1603,1604,1605,1606,1607,1608,1609,1610,1611,1612,1613,1614,1615,1616
1617,1618,1619,1620,1621,1622,1623,1624,1625,1626,1627,1628,1629,1630,1631,1632
1633,1634,1635,1636,1637,1638,1639,1640
*ELSET,ELSET=ESTAGEA
1641,1642,1643,1644,1645,1646,1647,1648,1649,1650,1651,1652,1653,1654,1655,1656
1657,1658,1659,1660,1661,1662,1663,1664,1665,1666,1667,1668,1669,1670,1671,1672
1673,1674,1675,1676,1677,1678,1679,1680,1681,1682,1683,1684,1685,1686,1687,1688
1689,1690,1691,1692,1693,1694,1695,1696,1697,1698,1699,1700,1701,1702,1703,1704
1705,1706,1707,1708,1709,1710,1711,1712,1713,1714,1715,1716,1717,1718,1719,1720
1721,1722,1723,1724,1725,1726,1727,1728,1729,1730,1731,1732,1733,1734,1735,1736
1737,1738,1739,1740,1741,1742,1743,1744,1745,1746,1747,1748,1749,1750,1751,1752
1753,1754,1755,1756,1757,1758,1759,1760,1761,1762,1763,1764,1765,1766,1767,1768
1769,1770,1771,1772,1773,1774,1775,1776,1777,1778,1779,1780,1781,1782,1783,1784
1785,1786,1787,1788,1789,1790,1791,1792,1793,1794,1795,1796,1797,1798,1799,1800
1801,1802,1803,1804,1805,1806,1807,1808,1809,1810,1811,1812,1813,1814,1815,1816
1817,1818,1819,1820,1821,1822,1823,1824,1825,1826,1827,1828,1829,1830,1831,1832
1833,1834,1835,1836,1837,1838,1839,1840,1841,1842,1843,1844,1845,1846,1847,1848
1849,1850,1851,1852,1853,1854,1855,1856,1857,1858,1859,1860,1861,1862,1863,1864
1865,1866,1867,1868,1869,1870,1871,1872,1873,1874,1875,1876,1877,1878,1879,1880
1881,1882,1883,1884,1885,1886,1887,1888,1889,1890,1891,1892,1893,1894,1895,1896
1897,1898,1899,1900,1901,1902,1903,1904,1905,1906,1907,1908,1909,1910,1911,1912
1913,1914,1915,1916,1917,1918,1919,1920,1921,1922,1923,1924,1925,1926,1927,1928
1929,1930,1931,1932,1933,1934,1935,1936,1937,1938,1939,1940,1941,1942,1943,1944
1945,1946,1947,1948,1949,1950,1951,1952,1953,1954,1955,1956,1957,1958,1959,1960
1961,1962,1963,1964,1965,1966,1967,1968,1969,1970,1971,1972,1973,1974,1975,1976
1977,1978,1979,1980,1981,1982,1983,1984,1985,1986,1987,1988,1989,1990,1991,1992
1993,1994,1995,1996,1997,1998,1999,2000,2001,2002,2003,2004,2005,2006,2007,2008
2009,2010,2011,2012,2013,2014,2015,2016,2017,2018,2019,2020,2021,2022,2023,2024
2025,2026,2027,2028,2029,2030,2031,2032,2033,2034,2035,2036,2037,2038,2039,2040
2041,2042,2043,2044,2045,2046,2047,2048,2049,2050,2051,2052,2053,2054,2055,2056
*ELSET,ELSET=EPROBES
694,1535,2027,178
*NSET,NSET=NFIXED
1,2,3,4,5,6,7,8,9,10,11,12,13,14,15,16
17,18,19,20,21,1001,1002,1003,1004,1005,1006,1007,1008,1009,1010,1011
1012,1013,1014,1015,1016,1017,1018,1019,1020,1021,2001,2002,2003,2004,2005,2006
2007,2008,2009,2010,2011,2012,2013,2014,2015,2016,2017,2018,2019,2020,2021,3001
3002,3003,3004,3005,3006,3007,3008,3009,3010,3011,3012,3013,3014,3015,3016,3017
3018,3019,3020,3021,4001,4002,4003,4004,4005,4006,4007,4008,4009,4010,4011,4012
4013,4014,4015,4016,4017,4018,4019,4020,4021,5001,5002,5003,5004,5005,5006,5007
5008,5009,5010,5011,5012,5013,5014,5015,5016,5017,5018,5019,5020,5021,6001,6002
6003,6004,6005,6006,6007,6008,6009,6010,6011,6012,6013,6014,6015,6016,6017,6018
6019,6020,6021,7001,7002,7003,7004,7005,7006,7007,7008,7009,7010,7011,7012,7013
7014,7015,7016,7017,7018,7019,7020,7021,8001,8002,8003,8004,8005,8006,8007,8008
8009,8013,8014,8015,8016,8017,8018,8019,8020,8021,9001,9002,9003,9004,9005,9006
9007,9008,9014,9015,9016,9017,9018,9019,9020,9021,10001,10002,10003,10004,10005,10006
10007,10008,10014,10015,10016,10017,10018,10019,10020,10021,11001,11002,11003,11004,11005,11006
11007,11008,11014,11015,11016,11017,11018,11019,11020,11021,12001,12002,12003,12004,12005,12006
12007,12008,12009,12013,12014,12015,12016,12017,12018,12019,12020,12021,13001,13002,13003,13004
13005,13006,13007,13008,13009,13010,13011,13012,13013,13014,13015,13016,13017,13018,13019,13020
13021,14001,14002,14003,14004,14005,14006,14007,14008,14009,14010,14011,14012,14013,14014,14015
14016,14017,14018,14019,14020,14021,15001,15002,15003,15004,15005,15006,15007,15008,15009,15010
15011,15012,15013,15014,15015,15016,15017,15018,15019,15020,15021,16001,16002,16003,16004,16005
16006,16007,16008,16009,16010,16011,16012,16013,16014,16015,16016,16017,16018,16019,16020,16021
17001,17002,17003,17004,17005,17006,17007,17008,17009,17010,17011,17012,17013,17014,17015,17016
17017,17018,17019,17020,17021,18001,18002,18003,18004,18005,18006,18007,18008,18009,18010,18011
18012,18013,18014,18015,18016,18017,18018,18019,18020,18021,19001,19002,19003,19004,19005,19006
19007,19008,19009,19010,19011,19012,19013,19014,19015,19016,19017,19018,19019,19020,19021,20001
20002,20003,20004,20005,20006,20007,20008,20009,20010,20011,20012,20013,20014,20015,20016,20017
20018,20019,20020,20021
*NSET,NSET=NRP
900000
*NSET,NSET=NS_M6_1
218019,218020,218021,219019,219020,219021,220019,220020,318019,318020,318021,319019,319020,319021,320019,320020
*NSET,NSET=NS_M6_2
200019,200020,201019,201020,201021,202019,202020,202021,300019,300020,301019,301020,301021,302019,302020,302021
*NSET,NSET=NS_M6_3
218001,218002,218003,219001,219002,219003,220002,220003,318001,318002,318003,319001,319002,319003,320002,320003
*NSET,NSET=NS_M6_4
200002,200003,201001,201002,201003,202001,202002,202003,300002,300003,301001,301002,301003,302001,302002,302003
*NSET,NSET=NS_M5_1
612018,613017,613018,613019,614018,712018,713017,713018,713019,714018
*NSET,NSET=NS_M5_2
616014,617013,617014,617015,618014,716014,717013,717014,717015,718014
*NSET,NSET=NS_M5_3
616008,617007,617008,617009,618008,716008,717007,717008,717009,718008
*NSET,NSET=NS_M5_4
612004,613003,613004,613005,614004,712004,713003,713004,713005,714004
*NSET,NSET=NS_M5_5
606004,607003,607004,607005,608004,706004,707003,707004,707005,708004
*NSET,NSET=NS_M5_6
602008,603007,603008,603009,604008,702008,703007,703008,703009,704008
*NSET,NSET=NS_M5_7
602014,603013,603014,603015,604014,702014,703013,703014,703015,704014
*NSET,NSET=NS_M5_8
606018,607017,607018,607019,608018,706018,707017,707018,707019,708018
*NSET,NSET=NS_ARM_SPIDER
904009,904010,905008,905009,905010,907016,908016,908017,909016,909017,911005,911006,912005,912006,913006,915012
915013,915014,916012,916013
*MATERIAL,NAME=AL7075_T651_CAND
*ELASTIC
71000.0,0.33
*DENSITY
2.800e-09
*SOLID SECTION,ELSET=EBRIDGE,MATERIAL=AL7075_T651_CAND
*SOLID SECTION,ELSET=ESTAGEB,MATERIAL=AL7075_T651_CAND
*SOLID SECTION,ELSET=ESTAGEA,MATERIAL=AL7075_T651_CAND
*BOUNDARY
NFIXED,ENCASTRE
** joint couplings (bolt-disk rigid zones)
*SURFACE,TYPE=NODE,NAME=S_NS_M6_1
NS_M6_1,
*SURFACE,TYPE=NODE,NAME=S_NS_M6_2
NS_M6_2,
*SURFACE,TYPE=NODE,NAME=S_NS_M6_3
NS_M6_3,
*SURFACE,TYPE=NODE,NAME=S_NS_M6_4
NS_M6_4,
*SURFACE,TYPE=NODE,NAME=S_NS_M5_1
NS_M5_1,
*SURFACE,TYPE=NODE,NAME=S_NS_M5_2
NS_M5_2,
*SURFACE,TYPE=NODE,NAME=S_NS_M5_3
NS_M5_3,
*SURFACE,TYPE=NODE,NAME=S_NS_M5_4
NS_M5_4,
*SURFACE,TYPE=NODE,NAME=S_NS_M5_5
NS_M5_5,
*SURFACE,TYPE=NODE,NAME=S_NS_M5_6
NS_M5_6,
*SURFACE,TYPE=NODE,NAME=S_NS_M5_7
NS_M5_7,
*SURFACE,TYPE=NODE,NAME=S_NS_M5_8
NS_M5_8,
*SURFACE,TYPE=NODE,NAME=S_NS_ARM_SPIDER
NS_ARM_SPIDER,
*COUPLING,CONSTRAINT NAME=M6_1,REF NODE=900100,SURFACE=S_NS_M6_1
*KINEMATIC
1,6
*COUPLING,CONSTRAINT NAME=M6_2,REF NODE=900101,SURFACE=S_NS_M6_2
*KINEMATIC
1,6
*COUPLING,CONSTRAINT NAME=M6_3,REF NODE=900102,SURFACE=S_NS_M6_3
*KINEMATIC
1,6
*COUPLING,CONSTRAINT NAME=M6_4,REF NODE=900103,SURFACE=S_NS_M6_4
*KINEMATIC
1,6
*COUPLING,CONSTRAINT NAME=M5_1,REF NODE=900200,SURFACE=S_NS_M5_1
*KINEMATIC
1,6
*COUPLING,CONSTRAINT NAME=M5_2,REF NODE=900201,SURFACE=S_NS_M5_2
*KINEMATIC
1,6
*COUPLING,CONSTRAINT NAME=M5_3,REF NODE=900202,SURFACE=S_NS_M5_3
*KINEMATIC
1,6
*COUPLING,CONSTRAINT NAME=M5_4,REF NODE=900203,SURFACE=S_NS_M5_4
*KINEMATIC
1,6
*COUPLING,CONSTRAINT NAME=M5_5,REF NODE=900204,SURFACE=S_NS_M5_5
*KINEMATIC
1,6
*COUPLING,CONSTRAINT NAME=M5_6,REF NODE=900205,SURFACE=S_NS_M5_6
*KINEMATIC
1,6
*COUPLING,CONSTRAINT NAME=M5_7,REF NODE=900206,SURFACE=S_NS_M5_7
*KINEMATIC
1,6
*COUPLING,CONSTRAINT NAME=M5_8,REF NODE=900207,SURFACE=S_NS_M5_8
*KINEMATIC
1,6
*COUPLING,CONSTRAINT NAME=ARM_SPIDER,REF NODE=900000,SURFACE=S_NS_ARM_SPIDER
*KINEMATIC
1,6
*STEP,NAME=QS_STEP,NLGEOM=NO
*STATIC
1.0,1.0
*CLOAD
900000,2,13.5527
900000,6,19073.3
*NODE PRINT,NSET=NFIXED
RF
*NODE PRINT,NSET=NRP
U
*EL PRINT,ELSET=EPROBES
S
*ENERGY PRINT
*OUTPUT,FIELD,VARIABLE=PRESELECT
*OUTPUT,HISTORY
*ENERGY OUTPUT
*END STEP
