*HEADING
FEA1_M3R_INTERFACE  case=CAPTURE_22KG_QS  mesh=COARSE  material=AL6061_T6_CAND
M7 WP7 FEA_OPERATIONAL -- operational on-orbit quasi-static screen.
Units: N, mm, MPa, tonne. Linear static. DESIGN_INDICATIVE results only.
** ASSUMPTION: LINEAR_STATIC_SMALL_DISPLACEMENT (NLGEOM off; loads are milli-g level)
** ASSUMPTION: BUS_SIDE_ENCASTRE_ASSUMPTION: BC-BUS-001 bus stiffness authority is HOLD; z=0 face fully clamped = stiff-boundary design bound
** ASSUMPTION: BOLT_DISK_KINEMATIC_COUPLING_ASSUMPTION: M6/M5/M4 joints modelled as rigid coupling disks (r_b=12/10/10 mm, auto-grow to >=1 node/face, recorded); no preload, no friction, no slip
** ASSUMPTION: ARM_BASE_RIGID_SPIDER_ASSUMPTION: B601 base flange stiffness >> 8 mm ring; single RP spider onto 4 as-built M4 disks; sensitivity covered by the 3-level mesh convergence series (CDR rigid_spider rule)
** ASSUMPTION: NO_CONTACT_NO_PRELOAD_NO_FRICTION: CDR joint mechanics HOLD; faces outside bolt disks untied (separation/interpenetration possible; Level-1 bound)
** ASSUMPTION: STAGE_B_IDEALIZED_ANNULAR_PLATE: pocket/recess not resolved; bore dia100 through bottom 2 layers; centre web r<50 modelled 4.0 mm (real 5.595)
** ASSUMPTION: STAGE_A_IDEALIZED_UNIFORM_RING: OD150/ID40 x 8.0 uniform; spigot, recess, counterbores not resolved
** ASSUMPTION: BRIDGE_CORNER_RADIUS_OMITTED: R4 corners modelled square; all boundaries stepped at element corners
** ASSUMPTION: SMALL_HOLES_NOT_CUT: dia6.6/5.5/4.6 holes represented by coupling disks, not voids (locally stiffer); hole-edge peak stress NOT qualified here
** ASSUMPTION: POISSON_ASSUMPTION: nu=0.33 for both Al candidates (not in M6 library)
** ASSUMPTION: MATERIALS_CANDIDATE: 6061-T6 / 7075-T651 elastic constants from M6 WP4 library, classification PROTOTYPE_CANDIDATE; margins DESIGN_INDICATIVE only
** ASSUMPTION: DYNAMIC_FACTOR_ASSUMPTION: quasi-static equivalence F_eq=DAF*J/dt, DAF=2.0, dt=0.1 s; both declared assumptions, research-bound
** ASSUMPTION: LOAD_DIRECTION_ASSUMPTION: transverse +y force plus bending moment about +z; worst-axis alignment declared (near-axisymmetric stack)
** ASSUMPTION: MEMORY_GATE_MESH_ADAPTATION: seeds 16/10/8 mm replace draft 4/2/1 mm; <=4000 C3D8R; 6.7 mm ligament NOT resolved with 3 elements; convergence assessed on global maxima trend only
** ASSUMPTION: ARM_LOADS_BOUNDED_BY_ASSUMPTION: quintic peak accel from LC-010 trajectory x r_eff=0.7 m; e-stop = 2x maneuver; arm inertia tensor not reduced (arm cases shown to be non-governing)
** Case load: F_y=7.21244 N, M_z=1846.14 N*mm (F=DAF*J/dt; M=F*L_grasp+DAF*C/dt (envelope row CAP22_030))
**
*NODE
1,-80.000000,-80.000000,0.000000
2,-64.000000,-80.000000,0.000000
3,-48.000000,-80.000000,0.000000
4,-32.000000,-80.000000,0.000000
5,-16.000000,-80.000000,0.000000
6,0.000000,-80.000000,0.000000
7,16.000000,-80.000000,0.000000
8,32.000000,-80.000000,0.000000
9,48.000000,-80.000000,0.000000
10,64.000000,-80.000000,0.000000
11,80.000000,-80.000000,0.000000
1001,-80.000000,-64.000000,0.000000
1002,-64.000000,-64.000000,0.000000
1003,-48.000000,-64.000000,0.000000
1004,-32.000000,-64.000000,0.000000
1005,-16.000000,-64.000000,0.000000
1006,0.000000,-64.000000,0.000000
1007,16.000000,-64.000000,0.000000
1008,32.000000,-64.000000,0.000000
1009,48.000000,-64.000000,0.000000
1010,64.000000,-64.000000,0.000000
1011,80.000000,-64.000000,0.000000
2001,-80.000000,-48.000000,0.000000
2002,-64.000000,-48.000000,0.000000
2003,-48.000000,-48.000000,0.000000
2004,-32.000000,-48.000000,0.000000
2005,-16.000000,-48.000000,0.000000
2006,0.000000,-48.000000,0.000000
2007,16.000000,-48.000000,0.000000
2008,32.000000,-48.000000,0.000000
2009,48.000000,-48.000000,0.000000
2010,64.000000,-48.000000,0.000000
2011,80.000000,-48.000000,0.000000
3001,-80.000000,-32.000000,0.000000
3002,-64.000000,-32.000000,0.000000
3003,-48.000000,-32.000000,0.000000
3004,-32.000000,-32.000000,0.000000
3005,-16.000000,-32.000000,0.000000
3006,0.000000,-32.000000,0.000000
3007,16.000000,-32.000000,0.000000
3008,32.000000,-32.000000,0.000000
3009,48.000000,-32.000000,0.000000
3010,64.000000,-32.000000,0.000000
3011,80.000000,-32.000000,0.000000
4001,-80.000000,-16.000000,0.000000
4002,-64.000000,-16.000000,0.000000
4003,-48.000000,-16.000000,0.000000
4004,-32.000000,-16.000000,0.000000
4005,-16.000000,-16.000000,0.000000
4007,16.000000,-16.000000,0.000000
4008,32.000000,-16.000000,0.000000
4009,48.000000,-16.000000,0.000000
4010,64.000000,-16.000000,0.000000
4011,80.000000,-16.000000,0.000000
5001,-80.000000,0.000000,0.000000
5002,-64.000000,0.000000,0.000000
5003,-48.000000,0.000000,0.000000
5004,-32.000000,0.000000,0.000000
5008,32.000000,0.000000,0.000000
5009,48.000000,0.000000,0.000000
5010,64.000000,0.000000,0.000000
5011,80.000000,0.000000,0.000000
6001,-80.000000,16.000000,0.000000
6002,-64.000000,16.000000,0.000000
6003,-48.000000,16.000000,0.000000
6004,-32.000000,16.000000,0.000000
6005,-16.000000,16.000000,0.000000
6007,16.000000,16.000000,0.000000
6008,32.000000,16.000000,0.000000
6009,48.000000,16.000000,0.000000
6010,64.000000,16.000000,0.000000
6011,80.000000,16.000000,0.000000
7001,-80.000000,32.000000,0.000000
7002,-64.000000,32.000000,0.000000
7003,-48.000000,32.000000,0.000000
7004,-32.000000,32.000000,0.000000
7005,-16.000000,32.000000,0.000000
7006,0.000000,32.000000,0.000000
7007,16.000000,32.000000,0.000000
7008,32.000000,32.000000,0.000000
7009,48.000000,32.000000,0.000000
7010,64.000000,32.000000,0.000000
7011,80.000000,32.000000,0.000000
8001,-80.000000,48.000000,0.000000
8002,-64.000000,48.000000,0.000000
8003,-48.000000,48.000000,0.000000
8004,-32.000000,48.000000,0.000000
8005,-16.000000,48.000000,0.000000
8006,0.000000,48.000000,0.000000
8007,16.000000,48.000000,0.000000
8008,32.000000,48.000000,0.000000
8009,48.000000,48.000000,0.000000
8010,64.000000,48.000000,0.000000
8011,80.000000,48.000000,0.000000
9001,-80.000000,64.000000,0.000000
9002,-64.000000,64.000000,0.000000
9003,-48.000000,64.000000,0.000000
9004,-32.000000,64.000000,0.000000
9005,-16.000000,64.000000,0.000000
9006,0.000000,64.000000,0.000000
9007,16.000000,64.000000,0.000000
9008,32.000000,64.000000,0.000000
9009,48.000000,64.000000,0.000000
9010,64.000000,64.000000,0.000000
9011,80.000000,64.000000,0.000000
10001,-80.000000,80.000000,0.000000
10002,-64.000000,80.000000,0.000000
10003,-48.000000,80.000000,0.000000
10004,-32.000000,80.000000,0.000000
10005,-16.000000,80.000000,0.000000
10006,0.000000,80.000000,0.000000
10007,16.000000,80.000000,0.000000
10008,32.000000,80.000000,0.000000
10009,48.000000,80.000000,0.000000
10010,64.000000,80.000000,0.000000
10011,80.000000,80.000000,0.000000
100001,-80.000000,-80.000000,5.375000
100002,-64.000000,-80.000000,5.375000
100003,-48.000000,-80.000000,5.375000
100004,-32.000000,-80.000000,5.375000
100005,-16.000000,-80.000000,5.375000
100006,0.000000,-80.000000,5.375000
100007,16.000000,-80.000000,5.375000
100008,32.000000,-80.000000,5.375000
100009,48.000000,-80.000000,5.375000
100010,64.000000,-80.000000,5.375000
100011,80.000000,-80.000000,5.375000
101001,-80.000000,-64.000000,5.375000
101002,-64.000000,-64.000000,5.375000
101003,-48.000000,-64.000000,5.375000
101004,-32.000000,-64.000000,5.375000
101005,-16.000000,-64.000000,5.375000
101006,0.000000,-64.000000,5.375000
101007,16.000000,-64.000000,5.375000
101008,32.000000,-64.000000,5.375000
101009,48.000000,-64.000000,5.375000
101010,64.000000,-64.000000,5.375000
101011,80.000000,-64.000000,5.375000
102001,-80.000000,-48.000000,5.375000
102002,-64.000000,-48.000000,5.375000
102003,-48.000000,-48.000000,5.375000
102004,-32.000000,-48.000000,5.375000
102005,-16.000000,-48.000000,5.375000
102006,0.000000,-48.000000,5.375000
102007,16.000000,-48.000000,5.375000
102008,32.000000,-48.000000,5.375000
102009,48.000000,-48.000000,5.375000
102010,64.000000,-48.000000,5.375000
102011,80.000000,-48.000000,5.375000
103001,-80.000000,-32.000000,5.375000
103002,-64.000000,-32.000000,5.375000
103003,-48.000000,-32.000000,5.375000
103004,-32.000000,-32.000000,5.375000
103005,-16.000000,-32.000000,5.375000
103006,0.000000,-32.000000,5.375000
103007,16.000000,-32.000000,5.375000
103008,32.000000,-32.000000,5.375000
103009,48.000000,-32.000000,5.375000
103010,64.000000,-32.000000,5.375000
103011,80.000000,-32.000000,5.375000
104001,-80.000000,-16.000000,5.375000
104002,-64.000000,-16.000000,5.375000
104003,-48.000000,-16.000000,5.375000
104004,-32.000000,-16.000000,5.375000
104005,-16.000000,-16.000000,5.375000
104007,16.000000,-16.000000,5.375000
104008,32.000000,-16.000000,5.375000
104009,48.000000,-16.000000,5.375000
104010,64.000000,-16.000000,5.375000
104011,80.000000,-16.000000,5.375000
105001,-80.000000,0.000000,5.375000
105002,-64.000000,0.000000,5.375000
105003,-48.000000,0.000000,5.375000
105004,-32.000000,0.000000,5.375000
105008,32.000000,0.000000,5.375000
105009,48.000000,0.000000,5.375000
105010,64.000000,0.000000,5.375000
105011,80.000000,0.000000,5.375000
106001,-80.000000,16.000000,5.375000
106002,-64.000000,16.000000,5.375000
106003,-48.000000,16.000000,5.375000
106004,-32.000000,16.000000,5.375000
106005,-16.000000,16.000000,5.375000
106007,16.000000,16.000000,5.375000
106008,32.000000,16.000000,5.375000
106009,48.000000,16.000000,5.375000
106010,64.000000,16.000000,5.375000
106011,80.000000,16.000000,5.375000
107001,-80.000000,32.000000,5.375000
107002,-64.000000,32.000000,5.375000
107003,-48.000000,32.000000,5.375000
107004,-32.000000,32.000000,5.375000
107005,-16.000000,32.000000,5.375000
107006,0.000000,32.000000,5.375000
107007,16.000000,32.000000,5.375000
107008,32.000000,32.000000,5.375000
107009,48.000000,32.000000,5.375000
107010,64.000000,32.000000,5.375000
107011,80.000000,32.000000,5.375000
108001,-80.000000,48.000000,5.375000
108002,-64.000000,48.000000,5.375000
108003,-48.000000,48.000000,5.375000
108004,-32.000000,48.000000,5.375000
108005,-16.000000,48.000000,5.375000
108006,0.000000,48.000000,5.375000
108007,16.000000,48.000000,5.375000
108008,32.000000,48.000000,5.375000
108009,48.000000,48.000000,5.375000
108010,64.000000,48.000000,5.375000
108011,80.000000,48.000000,5.375000
109001,-80.000000,64.000000,5.375000
109002,-64.000000,64.000000,5.375000
109003,-48.000000,64.000000,5.375000
109004,-32.000000,64.000000,5.375000
109005,-16.000000,64.000000,5.375000
109006,0.000000,64.000000,5.375000
109007,16.000000,64.000000,5.375000
109008,32.000000,64.000000,5.375000
109009,48.000000,64.000000,5.375000
109010,64.000000,64.000000,5.375000
109011,80.000000,64.000000,5.375000
110001,-80.000000,80.000000,5.375000
110002,-64.000000,80.000000,5.375000
110003,-48.000000,80.000000,5.375000
110004,-32.000000,80.000000,5.375000
110005,-16.000000,80.000000,5.375000
110006,0.000000,80.000000,5.375000
110007,16.000000,80.000000,5.375000
110008,32.000000,80.000000,5.375000
110009,48.000000,80.000000,5.375000
110010,64.000000,80.000000,5.375000
110011,80.000000,80.000000,5.375000
200001,-80.000000,-80.000000,10.750000
200002,-64.000000,-80.000000,10.750000
200003,-48.000000,-80.000000,10.750000
200004,-32.000000,-80.000000,10.750000
200005,-16.000000,-80.000000,10.750000
200006,0.000000,-80.000000,10.750000
200007,16.000000,-80.000000,10.750000
200008,32.000000,-80.000000,10.750000
200009,48.000000,-80.000000,10.750000
200010,64.000000,-80.000000,10.750000
200011,80.000000,-80.000000,10.750000
201001,-80.000000,-64.000000,10.750000
201002,-64.000000,-64.000000,10.750000
201003,-48.000000,-64.000000,10.750000
201004,-32.000000,-64.000000,10.750000
201005,-16.000000,-64.000000,10.750000
201006,0.000000,-64.000000,10.750000
201007,16.000000,-64.000000,10.750000
201008,32.000000,-64.000000,10.750000
201009,48.000000,-64.000000,10.750000
201010,64.000000,-64.000000,10.750000
201011,80.000000,-64.000000,10.750000
202001,-80.000000,-48.000000,10.750000
202002,-64.000000,-48.000000,10.750000
202003,-48.000000,-48.000000,10.750000
202004,-32.000000,-48.000000,10.750000
202005,-16.000000,-48.000000,10.750000
202006,0.000000,-48.000000,10.750000
202007,16.000000,-48.000000,10.750000
202008,32.000000,-48.000000,10.750000
202009,48.000000,-48.000000,10.750000
202010,64.000000,-48.000000,10.750000
202011,80.000000,-48.000000,10.750000
203001,-80.000000,-32.000000,10.750000
203002,-64.000000,-32.000000,10.750000
203003,-48.000000,-32.000000,10.750000
203004,-32.000000,-32.000000,10.750000
203005,-16.000000,-32.000000,10.750000
203006,0.000000,-32.000000,10.750000
203007,16.000000,-32.000000,10.750000
203008,32.000000,-32.000000,10.750000
203009,48.000000,-32.000000,10.750000
203010,64.000000,-32.000000,10.750000
203011,80.000000,-32.000000,10.750000
204001,-80.000000,-16.000000,10.750000
204002,-64.000000,-16.000000,10.750000
204003,-48.000000,-16.000000,10.750000
204004,-32.000000,-16.000000,10.750000
204005,-16.000000,-16.000000,10.750000
204007,16.000000,-16.000000,10.750000
204008,32.000000,-16.000000,10.750000
204009,48.000000,-16.000000,10.750000
204010,64.000000,-16.000000,10.750000
204011,80.000000,-16.000000,10.750000
205001,-80.000000,0.000000,10.750000
205002,-64.000000,0.000000,10.750000
205003,-48.000000,0.000000,10.750000
205004,-32.000000,0.000000,10.750000
205008,32.000000,0.000000,10.750000
205009,48.000000,0.000000,10.750000
205010,64.000000,0.000000,10.750000
205011,80.000000,0.000000,10.750000
206001,-80.000000,16.000000,10.750000
206002,-64.000000,16.000000,10.750000
206003,-48.000000,16.000000,10.750000
206004,-32.000000,16.000000,10.750000
206005,-16.000000,16.000000,10.750000
206007,16.000000,16.000000,10.750000
206008,32.000000,16.000000,10.750000
206009,48.000000,16.000000,10.750000
206010,64.000000,16.000000,10.750000
206011,80.000000,16.000000,10.750000
207001,-80.000000,32.000000,10.750000
207002,-64.000000,32.000000,10.750000
207003,-48.000000,32.000000,10.750000
207004,-32.000000,32.000000,10.750000
207005,-16.000000,32.000000,10.750000
207006,0.000000,32.000000,10.750000
207007,16.000000,32.000000,10.750000
207008,32.000000,32.000000,10.750000
207009,48.000000,32.000000,10.750000
207010,64.000000,32.000000,10.750000
207011,80.000000,32.000000,10.750000
208001,-80.000000,48.000000,10.750000
208002,-64.000000,48.000000,10.750000
208003,-48.000000,48.000000,10.750000
208004,-32.000000,48.000000,10.750000
208005,-16.000000,48.000000,10.750000
208006,0.000000,48.000000,10.750000
208007,16.000000,48.000000,10.750000
208008,32.000000,48.000000,10.750000
208009,48.000000,48.000000,10.750000
208010,64.000000,48.000000,10.750000
208011,80.000000,48.000000,10.750000
209001,-80.000000,64.000000,10.750000
209002,-64.000000,64.000000,10.750000
209003,-48.000000,64.000000,10.750000
209004,-32.000000,64.000000,10.750000
209005,-16.000000,64.000000,10.750000
209006,0.000000,64.000000,10.750000
209007,16.000000,64.000000,10.750000
209008,32.000000,64.000000,10.750000
209009,48.000000,64.000000,10.750000
209010,64.000000,64.000000,10.750000
209011,80.000000,64.000000,10.750000
210001,-80.000000,80.000000,10.750000
210002,-64.000000,80.000000,10.750000
210003,-48.000000,80.000000,10.750000
210004,-32.000000,80.000000,10.750000
210005,-16.000000,80.000000,10.750000
210006,0.000000,80.000000,10.750000
210007,16.000000,80.000000,10.750000
210008,32.000000,80.000000,10.750000
210009,48.000000,80.000000,10.750000
210010,64.000000,80.000000,10.750000
210011,80.000000,80.000000,10.750000
300001,-80.000000,-80.000000,10.750000
300002,-64.000000,-80.000000,10.750000
300003,-48.000000,-80.000000,10.750000
300004,-32.000000,-80.000000,10.750000
300005,-16.000000,-80.000000,10.750000
300006,0.000000,-80.000000,10.750000
300007,16.000000,-80.000000,10.750000
300008,32.000000,-80.000000,10.750000
300009,48.000000,-80.000000,10.750000
300010,64.000000,-80.000000,10.750000
300011,80.000000,-80.000000,10.750000
301001,-80.000000,-64.000000,10.750000
301002,-64.000000,-64.000000,10.750000
301003,-48.000000,-64.000000,10.750000
301004,-32.000000,-64.000000,10.750000
301005,-16.000000,-64.000000,10.750000
301006,0.000000,-64.000000,10.750000
301007,16.000000,-64.000000,10.750000
301008,32.000000,-64.000000,10.750000
301009,48.000000,-64.000000,10.750000
301010,64.000000,-64.000000,10.750000
301011,80.000000,-64.000000,10.750000
302001,-80.000000,-48.000000,10.750000
302002,-64.000000,-48.000000,10.750000
302003,-48.000000,-48.000000,10.750000
302004,-32.000000,-48.000000,10.750000
302005,-16.000000,-48.000000,10.750000
302007,16.000000,-48.000000,10.750000
302008,32.000000,-48.000000,10.750000
302009,48.000000,-48.000000,10.750000
302010,64.000000,-48.000000,10.750000
302011,80.000000,-48.000000,10.750000
303001,-80.000000,-32.000000,10.750000
303002,-64.000000,-32.000000,10.750000
303003,-48.000000,-32.000000,10.750000
303009,48.000000,-32.000000,10.750000
303010,64.000000,-32.000000,10.750000
303011,80.000000,-32.000000,10.750000
304001,-80.000000,-16.000000,10.750000
304002,-64.000000,-16.000000,10.750000
304003,-48.000000,-16.000000,10.750000
304009,48.000000,-16.000000,10.750000
304010,64.000000,-16.000000,10.750000
304011,80.000000,-16.000000,10.750000
305001,-80.000000,0.000000,10.750000
305002,-64.000000,0.000000,10.750000
305010,64.000000,0.000000,10.750000
305011,80.000000,0.000000,10.750000
306001,-80.000000,16.000000,10.750000
306002,-64.000000,16.000000,10.750000
306003,-48.000000,16.000000,10.750000
306009,48.000000,16.000000,10.750000
306010,64.000000,16.000000,10.750000
306011,80.000000,16.000000,10.750000
307001,-80.000000,32.000000,10.750000
307002,-64.000000,32.000000,10.750000
307003,-48.000000,32.000000,10.750000
307009,48.000000,32.000000,10.750000
307010,64.000000,32.000000,10.750000
307011,80.000000,32.000000,10.750000
308001,-80.000000,48.000000,10.750000
308002,-64.000000,48.000000,10.750000
308003,-48.000000,48.000000,10.750000
308004,-32.000000,48.000000,10.750000
308005,-16.000000,48.000000,10.750000
308007,16.000000,48.000000,10.750000
308008,32.000000,48.000000,10.750000
308009,48.000000,48.000000,10.750000
308010,64.000000,48.000000,10.750000
308011,80.000000,48.000000,10.750000
309001,-80.000000,64.000000,10.750000
309002,-64.000000,64.000000,10.750000
309003,-48.000000,64.000000,10.750000
309004,-32.000000,64.000000,10.750000
309005,-16.000000,64.000000,10.750000
309006,0.000000,64.000000,10.750000
309007,16.000000,64.000000,10.750000
309008,32.000000,64.000000,10.750000
309009,48.000000,64.000000,10.750000
309010,64.000000,64.000000,10.750000
309011,80.000000,64.000000,10.750000
310001,-80.000000,80.000000,10.750000
310002,-64.000000,80.000000,10.750000
310003,-48.000000,80.000000,10.750000
310004,-32.000000,80.000000,10.750000
310005,-16.000000,80.000000,10.750000
310006,0.000000,80.000000,10.750000
310007,16.000000,80.000000,10.750000
310008,32.000000,80.000000,10.750000
310009,48.000000,80.000000,10.750000
310010,64.000000,80.000000,10.750000
310011,80.000000,80.000000,10.750000
400001,-80.000000,-80.000000,14.750000
400002,-64.000000,-80.000000,14.750000
400003,-48.000000,-80.000000,14.750000
400004,-32.000000,-80.000000,14.750000
400005,-16.000000,-80.000000,14.750000
400006,0.000000,-80.000000,14.750000
400007,16.000000,-80.000000,14.750000
400008,32.000000,-80.000000,14.750000
400009,48.000000,-80.000000,14.750000
400010,64.000000,-80.000000,14.750000
400011,80.000000,-80.000000,14.750000
401001,-80.000000,-64.000000,14.750000
401002,-64.000000,-64.000000,14.750000
401003,-48.000000,-64.000000,14.750000
401004,-32.000000,-64.000000,14.750000
401005,-16.000000,-64.000000,14.750000
401006,0.000000,-64.000000,14.750000
401007,16.000000,-64.000000,14.750000
401008,32.000000,-64.000000,14.750000
401009,48.000000,-64.000000,14.750000
401010,64.000000,-64.000000,14.750000
401011,80.000000,-64.000000,14.750000
402001,-80.000000,-48.000000,14.750000
402002,-64.000000,-48.000000,14.750000
402003,-48.000000,-48.000000,14.750000
402004,-32.000000,-48.000000,14.750000
402005,-16.000000,-48.000000,14.750000
402007,16.000000,-48.000000,14.750000
402008,32.000000,-48.000000,14.750000
402009,48.000000,-48.000000,14.750000
402010,64.000000,-48.000000,14.750000
402011,80.000000,-48.000000,14.750000
403001,-80.000000,-32.000000,14.750000
403002,-64.000000,-32.000000,14.750000
403003,-48.000000,-32.000000,14.750000
403009,48.000000,-32.000000,14.750000
403010,64.000000,-32.000000,14.750000
403011,80.000000,-32.000000,14.750000
404001,-80.000000,-16.000000,14.750000
404002,-64.000000,-16.000000,14.750000
404003,-48.000000,-16.000000,14.750000
404009,48.000000,-16.000000,14.750000
404010,64.000000,-16.000000,14.750000
404011,80.000000,-16.000000,14.750000
405001,-80.000000,0.000000,14.750000
405002,-64.000000,0.000000,14.750000
405010,64.000000,0.000000,14.750000
405011,80.000000,0.000000,14.750000
406001,-80.000000,16.000000,14.750000
406002,-64.000000,16.000000,14.750000
406003,-48.000000,16.000000,14.750000
406009,48.000000,16.000000,14.750000
406010,64.000000,16.000000,14.750000
406011,80.000000,16.000000,14.750000
407001,-80.000000,32.000000,14.750000
407002,-64.000000,32.000000,14.750000
407003,-48.000000,32.000000,14.750000
407009,48.000000,32.000000,14.750000
407010,64.000000,32.000000,14.750000
407011,80.000000,32.000000,14.750000
408001,-80.000000,48.000000,14.750000
408002,-64.000000,48.000000,14.750000
408003,-48.000000,48.000000,14.750000
408004,-32.000000,48.000000,14.750000
408005,-16.000000,48.000000,14.750000
408007,16.000000,48.000000,14.750000
408008,32.000000,48.000000,14.750000
408009,48.000000,48.000000,14.750000
408010,64.000000,48.000000,14.750000
408011,80.000000,48.000000,14.750000
409001,-80.000000,64.000000,14.750000
409002,-64.000000,64.000000,14.750000
409003,-48.000000,64.000000,14.750000
409004,-32.000000,64.000000,14.750000
409005,-16.000000,64.000000,14.750000
409006,0.000000,64.000000,14.750000
409007,16.000000,64.000000,14.750000
409008,32.000000,64.000000,14.750000
409009,48.000000,64.000000,14.750000
409010,64.000000,64.000000,14.750000
409011,80.000000,64.000000,14.750000
410001,-80.000000,80.000000,14.750000
410002,-64.000000,80.000000,14.750000
410003,-48.000000,80.000000,14.750000
410004,-32.000000,80.000000,14.750000
410005,-16.000000,80.000000,14.750000
410006,0.000000,80.000000,14.750000
410007,16.000000,80.000000,14.750000
410008,32.000000,80.000000,14.750000
410009,48.000000,80.000000,14.750000
410010,64.000000,80.000000,14.750000
410011,80.000000,80.000000,14.750000
500001,-80.000000,-80.000000,18.750000
500002,-64.000000,-80.000000,18.750000
500003,-48.000000,-80.000000,18.750000
500004,-32.000000,-80.000000,18.750000
500005,-16.000000,-80.000000,18.750000
500006,0.000000,-80.000000,18.750000
500007,16.000000,-80.000000,18.750000
500008,32.000000,-80.000000,18.750000
500009,48.000000,-80.000000,18.750000
500010,64.000000,-80.000000,18.750000
500011,80.000000,-80.000000,18.750000
501001,-80.000000,-64.000000,18.750000
501002,-64.000000,-64.000000,18.750000
501003,-48.000000,-64.000000,18.750000
501004,-32.000000,-64.000000,18.750000
501005,-16.000000,-64.000000,18.750000
501006,0.000000,-64.000000,18.750000
501007,16.000000,-64.000000,18.750000
501008,32.000000,-64.000000,18.750000
501009,48.000000,-64.000000,18.750000
501010,64.000000,-64.000000,18.750000
501011,80.000000,-64.000000,18.750000
502001,-80.000000,-48.000000,18.750000
502002,-64.000000,-48.000000,18.750000
502003,-48.000000,-48.000000,18.750000
502004,-32.000000,-48.000000,18.750000
502005,-16.000000,-48.000000,18.750000
502006,0.000000,-48.000000,18.750000
502007,16.000000,-48.000000,18.750000
502008,32.000000,-48.000000,18.750000
502009,48.000000,-48.000000,18.750000
502010,64.000000,-48.000000,18.750000
502011,80.000000,-48.000000,18.750000
503001,-80.000000,-32.000000,18.750000
503002,-64.000000,-32.000000,18.750000
503003,-48.000000,-32.000000,18.750000
503004,-32.000000,-32.000000,18.750000
503005,-16.000000,-32.000000,18.750000
503006,0.000000,-32.000000,18.750000
503007,16.000000,-32.000000,18.750000
503008,32.000000,-32.000000,18.750000
503009,48.000000,-32.000000,18.750000
503010,64.000000,-32.000000,18.750000
503011,80.000000,-32.000000,18.750000
504001,-80.000000,-16.000000,18.750000
504002,-64.000000,-16.000000,18.750000
504003,-48.000000,-16.000000,18.750000
504004,-32.000000,-16.000000,18.750000
504005,-16.000000,-16.000000,18.750000
504006,0.000000,-16.000000,18.750000
504007,16.000000,-16.000000,18.750000
504008,32.000000,-16.000000,18.750000
504009,48.000000,-16.000000,18.750000
504010,64.000000,-16.000000,18.750000
504011,80.000000,-16.000000,18.750000
505001,-80.000000,0.000000,18.750000
505002,-64.000000,0.000000,18.750000
505003,-48.000000,0.000000,18.750000
505004,-32.000000,0.000000,18.750000
505005,-16.000000,0.000000,18.750000
505006,0.000000,0.000000,18.750000
505007,16.000000,0.000000,18.750000
505008,32.000000,0.000000,18.750000
505009,48.000000,0.000000,18.750000
505010,64.000000,0.000000,18.750000
505011,80.000000,0.000000,18.750000
506001,-80.000000,16.000000,18.750000
506002,-64.000000,16.000000,18.750000
506003,-48.000000,16.000000,18.750000
506004,-32.000000,16.000000,18.750000
506005,-16.000000,16.000000,18.750000
506006,0.000000,16.000000,18.750000
506007,16.000000,16.000000,18.750000
506008,32.000000,16.000000,18.750000
506009,48.000000,16.000000,18.750000
506010,64.000000,16.000000,18.750000
506011,80.000000,16.000000,18.750000
507001,-80.000000,32.000000,18.750000
507002,-64.000000,32.000000,18.750000
507003,-48.000000,32.000000,18.750000
507004,-32.000000,32.000000,18.750000
507005,-16.000000,32.000000,18.750000
507006,0.000000,32.000000,18.750000
507007,16.000000,32.000000,18.750000
507008,32.000000,32.000000,18.750000
507009,48.000000,32.000000,18.750000
507010,64.000000,32.000000,18.750000
507011,80.000000,32.000000,18.750000
508001,-80.000000,48.000000,18.750000
508002,-64.000000,48.000000,18.750000
508003,-48.000000,48.000000,18.750000
508004,-32.000000,48.000000,18.750000
508005,-16.000000,48.000000,18.750000
508006,0.000000,48.000000,18.750000
508007,16.000000,48.000000,18.750000
508008,32.000000,48.000000,18.750000
508009,48.000000,48.000000,18.750000
508010,64.000000,48.000000,18.750000
508011,80.000000,48.000000,18.750000
509001,-80.000000,64.000000,18.750000
509002,-64.000000,64.000000,18.750000
509003,-48.000000,64.000000,18.750000
509004,-32.000000,64.000000,18.750000
509005,-16.000000,64.000000,18.750000
509006,0.000000,64.000000,18.750000
509007,16.000000,64.000000,18.750000
509008,32.000000,64.000000,18.750000
509009,48.000000,64.000000,18.750000
509010,64.000000,64.000000,18.750000
509011,80.000000,64.000000,18.750000
510001,-80.000000,80.000000,18.750000
510002,-64.000000,80.000000,18.750000
510003,-48.000000,80.000000,18.750000
510004,-32.000000,80.000000,18.750000
510005,-16.000000,80.000000,18.750000
510006,0.000000,80.000000,18.750000
510007,16.000000,80.000000,18.750000
510008,32.000000,80.000000,18.750000
510009,48.000000,80.000000,18.750000
510010,64.000000,80.000000,18.750000
510011,80.000000,80.000000,18.750000
600001,-80.000000,-80.000000,22.750000
600002,-64.000000,-80.000000,22.750000
600003,-48.000000,-80.000000,22.750000
600004,-32.000000,-80.000000,22.750000
600005,-16.000000,-80.000000,22.750000
600006,0.000000,-80.000000,22.750000
600007,16.000000,-80.000000,22.750000
600008,32.000000,-80.000000,22.750000
600009,48.000000,-80.000000,22.750000
600010,64.000000,-80.000000,22.750000
600011,80.000000,-80.000000,22.750000
601001,-80.000000,-64.000000,22.750000
601002,-64.000000,-64.000000,22.750000
601003,-48.000000,-64.000000,22.750000
601004,-32.000000,-64.000000,22.750000
601005,-16.000000,-64.000000,22.750000
601006,0.000000,-64.000000,22.750000
601007,16.000000,-64.000000,22.750000
601008,32.000000,-64.000000,22.750000
601009,48.000000,-64.000000,22.750000
601010,64.000000,-64.000000,22.750000
601011,80.000000,-64.000000,22.750000
602001,-80.000000,-48.000000,22.750000
602002,-64.000000,-48.000000,22.750000
602003,-48.000000,-48.000000,22.750000
602004,-32.000000,-48.000000,22.750000
602005,-16.000000,-48.000000,22.750000
602006,0.000000,-48.000000,22.750000
602007,16.000000,-48.000000,22.750000
602008,32.000000,-48.000000,22.750000
602009,48.000000,-48.000000,22.750000
602010,64.000000,-48.000000,22.750000
602011,80.000000,-48.000000,22.750000
603001,-80.000000,-32.000000,22.750000
603002,-64.000000,-32.000000,22.750000
603003,-48.000000,-32.000000,22.750000
603004,-32.000000,-32.000000,22.750000
603005,-16.000000,-32.000000,22.750000
603006,0.000000,-32.000000,22.750000
603007,16.000000,-32.000000,22.750000
603008,32.000000,-32.000000,22.750000
603009,48.000000,-32.000000,22.750000
603010,64.000000,-32.000000,22.750000
603011,80.000000,-32.000000,22.750000
604001,-80.000000,-16.000000,22.750000
604002,-64.000000,-16.000000,22.750000
604003,-48.000000,-16.000000,22.750000
604004,-32.000000,-16.000000,22.750000
604005,-16.000000,-16.000000,22.750000
604006,0.000000,-16.000000,22.750000
604007,16.000000,-16.000000,22.750000
604008,32.000000,-16.000000,22.750000
604009,48.000000,-16.000000,22.750000
604010,64.000000,-16.000000,22.750000
604011,80.000000,-16.000000,22.750000
605001,-80.000000,0.000000,22.750000
605002,-64.000000,0.000000,22.750000
605003,-48.000000,0.000000,22.750000
605004,-32.000000,0.000000,22.750000
605005,-16.000000,0.000000,22.750000
605006,0.000000,0.000000,22.750000
605007,16.000000,0.000000,22.750000
605008,32.000000,0.000000,22.750000
605009,48.000000,0.000000,22.750000
605010,64.000000,0.000000,22.750000
605011,80.000000,0.000000,22.750000
606001,-80.000000,16.000000,22.750000
606002,-64.000000,16.000000,22.750000
606003,-48.000000,16.000000,22.750000
606004,-32.000000,16.000000,22.750000
606005,-16.000000,16.000000,22.750000
606006,0.000000,16.000000,22.750000
606007,16.000000,16.000000,22.750000
606008,32.000000,16.000000,22.750000
606009,48.000000,16.000000,22.750000
606010,64.000000,16.000000,22.750000
606011,80.000000,16.000000,22.750000
607001,-80.000000,32.000000,22.750000
607002,-64.000000,32.000000,22.750000
607003,-48.000000,32.000000,22.750000
607004,-32.000000,32.000000,22.750000
607005,-16.000000,32.000000,22.750000
607006,0.000000,32.000000,22.750000
607007,16.000000,32.000000,22.750000
607008,32.000000,32.000000,22.750000
607009,48.000000,32.000000,22.750000
607010,64.000000,32.000000,22.750000
607011,80.000000,32.000000,22.750000
608001,-80.000000,48.000000,22.750000
608002,-64.000000,48.000000,22.750000
608003,-48.000000,48.000000,22.750000
608004,-32.000000,48.000000,22.750000
608005,-16.000000,48.000000,22.750000
608006,0.000000,48.000000,22.750000
608007,16.000000,48.000000,22.750000
608008,32.000000,48.000000,22.750000
608009,48.000000,48.000000,22.750000
608010,64.000000,48.000000,22.750000
608011,80.000000,48.000000,22.750000
609001,-80.000000,64.000000,22.750000
609002,-64.000000,64.000000,22.750000
609003,-48.000000,64.000000,22.750000
609004,-32.000000,64.000000,22.750000
609005,-16.000000,64.000000,22.750000
609006,0.000000,64.000000,22.750000
609007,16.000000,64.000000,22.750000
609008,32.000000,64.000000,22.750000
609009,48.000000,64.000000,22.750000
609010,64.000000,64.000000,22.750000
609011,80.000000,64.000000,22.750000
610001,-80.000000,80.000000,22.750000
610002,-64.000000,80.000000,22.750000
610003,-48.000000,80.000000,22.750000
610004,-32.000000,80.000000,22.750000
610005,-16.000000,80.000000,22.750000
610006,0.000000,80.000000,22.750000
610007,16.000000,80.000000,22.750000
610008,32.000000,80.000000,22.750000
610009,48.000000,80.000000,22.750000
610010,64.000000,80.000000,22.750000
610011,80.000000,80.000000,22.750000
701004,-32.000000,-64.000000,22.750000
701005,-16.000000,-64.000000,22.750000
701006,0.000000,-64.000000,22.750000
701007,16.000000,-64.000000,22.750000
701008,32.000000,-64.000000,22.750000
702003,-48.000000,-48.000000,22.750000
702004,-32.000000,-48.000000,22.750000
702005,-16.000000,-48.000000,22.750000
702006,0.000000,-48.000000,22.750000
702007,16.000000,-48.000000,22.750000
702008,32.000000,-48.000000,22.750000
702009,48.000000,-48.000000,22.750000
703002,-64.000000,-32.000000,22.750000
703003,-48.000000,-32.000000,22.750000
703004,-32.000000,-32.000000,22.750000
703005,-16.000000,-32.000000,22.750000
703006,0.000000,-32.000000,22.750000
703007,16.000000,-32.000000,22.750000
703008,32.000000,-32.000000,22.750000
703009,48.000000,-32.000000,22.750000
703010,64.000000,-32.000000,22.750000
704002,-64.000000,-16.000000,22.750000
704003,-48.000000,-16.000000,22.750000
704004,-32.000000,-16.000000,22.750000
704005,-16.000000,-16.000000,22.750000
704007,16.000000,-16.000000,22.750000
704008,32.000000,-16.000000,22.750000
704009,48.000000,-16.000000,22.750000
704010,64.000000,-16.000000,22.750000
705002,-64.000000,0.000000,22.750000
705003,-48.000000,0.000000,22.750000
705004,-32.000000,0.000000,22.750000
705008,32.000000,0.000000,22.750000
705009,48.000000,0.000000,22.750000
705010,64.000000,0.000000,22.750000
706002,-64.000000,16.000000,22.750000
706003,-48.000000,16.000000,22.750000
706004,-32.000000,16.000000,22.750000
706005,-16.000000,16.000000,22.750000
706007,16.000000,16.000000,22.750000
706008,32.000000,16.000000,22.750000
706009,48.000000,16.000000,22.750000
706010,64.000000,16.000000,22.750000
707002,-64.000000,32.000000,22.750000
707003,-48.000000,32.000000,22.750000
707004,-32.000000,32.000000,22.750000
707005,-16.000000,32.000000,22.750000
707006,0.000000,32.000000,22.750000
707007,16.000000,32.000000,22.750000
707008,32.000000,32.000000,22.750000
707009,48.000000,32.000000,22.750000
707010,64.000000,32.000000,22.750000
708003,-48.000000,48.000000,22.750000
708004,-32.000000,48.000000,22.750000
708005,-16.000000,48.000000,22.750000
708006,0.000000,48.000000,22.750000
708007,16.000000,48.000000,22.750000
708008,32.000000,48.000000,22.750000
708009,48.000000,48.000000,22.750000
709004,-32.000000,64.000000,22.750000
709005,-16.000000,64.000000,22.750000
709006,0.000000,64.000000,22.750000
709007,16.000000,64.000000,22.750000
709008,32.000000,64.000000,22.750000
801004,-32.000000,-64.000000,26.750000
801005,-16.000000,-64.000000,26.750000
801006,0.000000,-64.000000,26.750000
801007,16.000000,-64.000000,26.750000
801008,32.000000,-64.000000,26.750000
802003,-48.000000,-48.000000,26.750000
802004,-32.000000,-48.000000,26.750000
802005,-16.000000,-48.000000,26.750000
802006,0.000000,-48.000000,26.750000
802007,16.000000,-48.000000,26.750000
802008,32.000000,-48.000000,26.750000
802009,48.000000,-48.000000,26.750000
803002,-64.000000,-32.000000,26.750000
803003,-48.000000,-32.000000,26.750000
803004,-32.000000,-32.000000,26.750000
803005,-16.000000,-32.000000,26.750000
803006,0.000000,-32.000000,26.750000
803007,16.000000,-32.000000,26.750000
803008,32.000000,-32.000000,26.750000
803009,48.000000,-32.000000,26.750000
803010,64.000000,-32.000000,26.750000
804002,-64.000000,-16.000000,26.750000
804003,-48.000000,-16.000000,26.750000
804004,-32.000000,-16.000000,26.750000
804005,-16.000000,-16.000000,26.750000
804007,16.000000,-16.000000,26.750000
804008,32.000000,-16.000000,26.750000
804009,48.000000,-16.000000,26.750000
804010,64.000000,-16.000000,26.750000
805002,-64.000000,0.000000,26.750000
805003,-48.000000,0.000000,26.750000
805004,-32.000000,0.000000,26.750000
805008,32.000000,0.000000,26.750000
805009,48.000000,0.000000,26.750000
805010,64.000000,0.000000,26.750000
806002,-64.000000,16.000000,26.750000
806003,-48.000000,16.000000,26.750000
806004,-32.000000,16.000000,26.750000
806005,-16.000000,16.000000,26.750000
806007,16.000000,16.000000,26.750000
806008,32.000000,16.000000,26.750000
806009,48.000000,16.000000,26.750000
806010,64.000000,16.000000,26.750000
807002,-64.000000,32.000000,26.750000
807003,-48.000000,32.000000,26.750000
807004,-32.000000,32.000000,26.750000
807005,-16.000000,32.000000,26.750000
807006,0.000000,32.000000,26.750000
807007,16.000000,32.000000,26.750000
807008,32.000000,32.000000,26.750000
807009,48.000000,32.000000,26.750000
807010,64.000000,32.000000,26.750000
808003,-48.000000,48.000000,26.750000
808004,-32.000000,48.000000,26.750000
808005,-16.000000,48.000000,26.750000
808006,0.000000,48.000000,26.750000
808007,16.000000,48.000000,26.750000
808008,32.000000,48.000000,26.750000
808009,48.000000,48.000000,26.750000
809004,-32.000000,64.000000,26.750000
809005,-16.000000,64.000000,26.750000
809006,0.000000,64.000000,26.750000
809007,16.000000,64.000000,26.750000
809008,32.000000,64.000000,26.750000
901004,-32.000000,-64.000000,30.750000
901005,-16.000000,-64.000000,30.750000
901006,0.000000,-64.000000,30.750000
901007,16.000000,-64.000000,30.750000
901008,32.000000,-64.000000,30.750000
902003,-48.000000,-48.000000,30.750000
902004,-32.000000,-48.000000,30.750000
902005,-16.000000,-48.000000,30.750000
902006,0.000000,-48.000000,30.750000
902007,16.000000,-48.000000,30.750000
902008,32.000000,-48.000000,30.750000
902009,48.000000,-48.000000,30.750000
903002,-64.000000,-32.000000,30.750000
903003,-48.000000,-32.000000,30.750000
903004,-32.000000,-32.000000,30.750000
903005,-16.000000,-32.000000,30.750000
903006,0.000000,-32.000000,30.750000
903007,16.000000,-32.000000,30.750000
903008,32.000000,-32.000000,30.750000
903009,48.000000,-32.000000,30.750000
903010,64.000000,-32.000000,30.750000
904002,-64.000000,-16.000000,30.750000
904003,-48.000000,-16.000000,30.750000
904004,-32.000000,-16.000000,30.750000
904005,-16.000000,-16.000000,30.750000
904007,16.000000,-16.000000,30.750000
904008,32.000000,-16.000000,30.750000
904009,48.000000,-16.000000,30.750000
904010,64.000000,-16.000000,30.750000
905002,-64.000000,0.000000,30.750000
905003,-48.000000,0.000000,30.750000
905004,-32.000000,0.000000,30.750000
905008,32.000000,0.000000,30.750000
905009,48.000000,0.000000,30.750000
905010,64.000000,0.000000,30.750000
906002,-64.000000,16.000000,30.750000
906003,-48.000000,16.000000,30.750000
906004,-32.000000,16.000000,30.750000
906005,-16.000000,16.000000,30.750000
906007,16.000000,16.000000,30.750000
906008,32.000000,16.000000,30.750000
906009,48.000000,16.000000,30.750000
906010,64.000000,16.000000,30.750000
907002,-64.000000,32.000000,30.750000
907003,-48.000000,32.000000,30.750000
907004,-32.000000,32.000000,30.750000
907005,-16.000000,32.000000,30.750000
907006,0.000000,32.000000,30.750000
907007,16.000000,32.000000,30.750000
907008,32.000000,32.000000,30.750000
907009,48.000000,32.000000,30.750000
907010,64.000000,32.000000,30.750000
908003,-48.000000,48.000000,30.750000
908004,-32.000000,48.000000,30.750000
908005,-16.000000,48.000000,30.750000
908006,0.000000,48.000000,30.750000
908007,16.000000,48.000000,30.750000
908008,32.000000,48.000000,30.750000
908009,48.000000,48.000000,30.750000
909004,-32.000000,64.000000,30.750000
909005,-16.000000,64.000000,30.750000
909006,0.000000,64.000000,30.750000
909007,16.000000,64.000000,30.750000
909008,32.000000,64.000000,30.750000
900000,0.0,0.0,30.75
900100,70.000000,70.000000,10.750000
900101,70.000000,-70.000000,10.750000
900102,-70.000000,70.000000,10.750000
900103,-70.000000,-70.000000,10.750000
900200,57.742471,23.917715,22.750000
900201,23.917715,57.742471,22.750000
900202,-23.917715,57.742471,22.750000
900203,-57.742471,23.917715,22.750000
900204,-57.742471,-23.917715,22.750000
900205,-23.917715,-57.742471,22.750000
900206,23.917715,-57.742471,22.750000
900207,57.742471,-23.917715,22.750000
*ELEMENT,TYPE=C3D8R,ELSET=EALL
1,1,2,1002,1001,100001,100002,101002,101001
2,2,3,1003,1002,100002,100003,101003,101002
3,3,4,1004,1003,100003,100004,101004,101003
4,4,5,1005,1004,100004,100005,101005,101004
5,5,6,1006,1005,100005,100006,101006,101005
6,6,7,1007,1006,100006,100007,101007,101006
7,7,8,1008,1007,100007,100008,101008,101007
8,8,9,1009,1008,100008,100009,101009,101008
9,9,10,1010,1009,100009,100010,101010,101009
10,10,11,1011,1010,100010,100011,101011,101010
11,1001,1002,2002,2001,101001,101002,102002,102001
12,1002,1003,2003,2002,101002,101003,102003,102002
13,1003,1004,2004,2003,101003,101004,102004,102003
14,1004,1005,2005,2004,101004,101005,102005,102004
15,1005,1006,2006,2005,101005,101006,102006,102005
16,1006,1007,2007,2006,101006,101007,102007,102006
17,1007,1008,2008,2007,101007,101008,102008,102007
18,1008,1009,2009,2008,101008,101009,102009,102008
19,1009,1010,2010,2009,101009,101010,102010,102009
20,1010,1011,2011,2010,101010,101011,102011,102010
21,2001,2002,3002,3001,102001,102002,103002,103001
22,2002,2003,3003,3002,102002,102003,103003,103002
23,2003,2004,3004,3003,102003,102004,103004,103003
24,2004,2005,3005,3004,102004,102005,103005,103004
25,2005,2006,3006,3005,102005,102006,103006,103005
26,2006,2007,3007,3006,102006,102007,103007,103006
27,2007,2008,3008,3007,102007,102008,103008,103007
28,2008,2009,3009,3008,102008,102009,103009,103008
29,2009,2010,3010,3009,102009,102010,103010,103009
30,2010,2011,3011,3010,102010,102011,103011,103010
31,3001,3002,4002,4001,103001,103002,104002,104001
32,3002,3003,4003,4002,103002,103003,104003,104002
33,3003,3004,4004,4003,103003,103004,104004,104003
34,3004,3005,4005,4004,103004,103005,104005,104004
35,3007,3008,4008,4007,103007,103008,104008,104007
36,3008,3009,4009,4008,103008,103009,104009,104008
37,3009,3010,4010,4009,103009,103010,104010,104009
38,3010,3011,4011,4010,103010,103011,104011,104010
39,4001,4002,5002,5001,104001,104002,105002,105001
40,4002,4003,5003,5002,104002,104003,105003,105002
41,4003,4004,5004,5003,104003,104004,105004,105003
42,4008,4009,5009,5008,104008,104009,105009,105008
43,4009,4010,5010,5009,104009,104010,105010,105009
44,4010,4011,5011,5010,104010,104011,105011,105010
45,5001,5002,6002,6001,105001,105002,106002,106001
46,5002,5003,6003,6002,105002,105003,106003,106002
47,5003,5004,6004,6003,105003,105004,106004,106003
48,5008,5009,6009,6008,105008,105009,106009,106008
49,5009,5010,6010,6009,105009,105010,106010,106009
50,5010,5011,6011,6010,105010,105011,106011,106010
51,6001,6002,7002,7001,106001,106002,107002,107001
52,6002,6003,7003,7002,106002,106003,107003,107002
53,6003,6004,7004,7003,106003,106004,107004,107003
54,6004,6005,7005,7004,106004,106005,107005,107004
55,6007,6008,7008,7007,106007,106008,107008,107007
56,6008,6009,7009,7008,106008,106009,107009,107008
57,6009,6010,7010,7009,106009,106010,107010,107009
58,6010,6011,7011,7010,106010,106011,107011,107010
59,7001,7002,8002,8001,107001,107002,108002,108001
60,7002,7003,8003,8002,107002,107003,108003,108002
61,7003,7004,8004,8003,107003,107004,108004,108003
62,7004,7005,8005,8004,107004,107005,108005,108004
63,7005,7006,8006,8005,107005,107006,108006,108005
64,7006,7007,8007,8006,107006,107007,108007,108006
65,7007,7008,8008,8007,107007,107008,108008,108007
66,7008,7009,8009,8008,107008,107009,108009,108008
67,7009,7010,8010,8009,107009,107010,108010,108009
68,7010,7011,8011,8010,107010,107011,108011,108010
69,8001,8002,9002,9001,108001,108002,109002,109001
70,8002,8003,9003,9002,108002,108003,109003,109002
71,8003,8004,9004,9003,108003,108004,109004,109003
72,8004,8005,9005,9004,108004,108005,109005,109004
73,8005,8006,9006,9005,108005,108006,109006,109005
74,8006,8007,9007,9006,108006,108007,109007,109006
75,8007,8008,9008,9007,108007,108008,109008,109007
76,8008,8009,9009,9008,108008,108009,109009,109008
77,8009,8010,9010,9009,108009,108010,109010,109009
78,8010,8011,9011,9010,108010,108011,109011,109010
79,9001,9002,10002,10001,109001,109002,110002,110001
80,9002,9003,10003,10002,109002,109003,110003,110002
81,9003,9004,10004,10003,109003,109004,110004,110003
82,9004,9005,10005,10004,109004,109005,110005,110004
83,9005,9006,10006,10005,109005,109006,110006,110005
84,9006,9007,10007,10006,109006,109007,110007,110006
85,9007,9008,10008,10007,109007,109008,110008,110007
86,9008,9009,10009,10008,109008,109009,110009,110008
87,9009,9010,10010,10009,109009,109010,110010,110009
88,9010,9011,10011,10010,109010,109011,110011,110010
89,100001,100002,101002,101001,200001,200002,201002,201001
90,100002,100003,101003,101002,200002,200003,201003,201002
91,100003,100004,101004,101003,200003,200004,201004,201003
92,100004,100005,101005,101004,200004,200005,201005,201004
93,100005,100006,101006,101005,200005,200006,201006,201005
94,100006,100007,101007,101006,200006,200007,201007,201006
95,100007,100008,101008,101007,200007,200008,201008,201007
96,100008,100009,101009,101008,200008,200009,201009,201008
97,100009,100010,101010,101009,200009,200010,201010,201009
98,100010,100011,101011,101010,200010,200011,201011,201010
99,101001,101002,102002,102001,201001,201002,202002,202001
100,101002,101003,102003,102002,201002,201003,202003,202002
101,101003,101004,102004,102003,201003,201004,202004,202003
102,101004,101005,102005,102004,201004,201005,202005,202004
103,101005,101006,102006,102005,201005,201006,202006,202005
104,101006,101007,102007,102006,201006,201007,202007,202006
105,101007,101008,102008,102007,201007,201008,202008,202007
106,101008,101009,102009,102008,201008,201009,202009,202008
107,101009,101010,102010,102009,201009,201010,202010,202009
108,101010,101011,102011,102010,201010,201011,202011,202010
109,102001,102002,103002,103001,202001,202002,203002,203001
110,102002,102003,103003,103002,202002,202003,203003,203002
111,102003,102004,103004,103003,202003,202004,203004,203003
112,102004,102005,103005,103004,202004,202005,203005,203004
113,102005,102006,103006,103005,202005,202006,203006,203005
114,102006,102007,103007,103006,202006,202007,203007,203006
115,102007,102008,103008,103007,202007,202008,203008,203007
116,102008,102009,103009,103008,202008,202009,203009,203008
117,102009,102010,103010,103009,202009,202010,203010,203009
118,102010,102011,103011,103010,202010,202011,203011,203010
119,103001,103002,104002,104001,203001,203002,204002,204001
120,103002,103003,104003,104002,203002,203003,204003,204002
121,103003,103004,104004,104003,203003,203004,204004,204003
122,103004,103005,104005,104004,203004,203005,204005,204004
123,103007,103008,104008,104007,203007,203008,204008,204007
124,103008,103009,104009,104008,203008,203009,204009,204008
125,103009,103010,104010,104009,203009,203010,204010,204009
126,103010,103011,104011,104010,203010,203011,204011,204010
127,104001,104002,105002,105001,204001,204002,205002,205001
128,104002,104003,105003,105002,204002,204003,205003,205002
129,104003,104004,105004,105003,204003,204004,205004,205003
130,104008,104009,105009,105008,204008,204009,205009,205008
131,104009,104010,105010,105009,204009,204010,205010,205009
132,104010,104011,105011,105010,204010,204011,205011,205010
133,105001,105002,106002,106001,205001,205002,206002,206001
134,105002,105003,106003,106002,205002,205003,206003,206002
135,105003,105004,106004,106003,205003,205004,206004,206003
136,105008,105009,106009,106008,205008,205009,206009,206008
137,105009,105010,106010,106009,205009,205010,206010,206009
138,105010,105011,106011,106010,205010,205011,206011,206010
139,106001,106002,107002,107001,206001,206002,207002,207001
140,106002,106003,107003,107002,206002,206003,207003,207002
141,106003,106004,107004,107003,206003,206004,207004,207003
142,106004,106005,107005,107004,206004,206005,207005,207004
143,106007,106008,107008,107007,206007,206008,207008,207007
144,106008,106009,107009,107008,206008,206009,207009,207008
145,106009,106010,107010,107009,206009,206010,207010,207009
146,106010,106011,107011,107010,206010,206011,207011,207010
147,107001,107002,108002,108001,207001,207002,208002,208001
148,107002,107003,108003,108002,207002,207003,208003,208002
149,107003,107004,108004,108003,207003,207004,208004,208003
150,107004,107005,108005,108004,207004,207005,208005,208004
151,107005,107006,108006,108005,207005,207006,208006,208005
152,107006,107007,108007,108006,207006,207007,208007,208006
153,107007,107008,108008,108007,207007,207008,208008,208007
154,107008,107009,108009,108008,207008,207009,208009,208008
155,107009,107010,108010,108009,207009,207010,208010,208009
156,107010,107011,108011,108010,207010,207011,208011,208010
157,108001,108002,109002,109001,208001,208002,209002,209001
158,108002,108003,109003,109002,208002,208003,209003,209002
159,108003,108004,109004,109003,208003,208004,209004,209003
160,108004,108005,109005,109004,208004,208005,209005,209004
161,108005,108006,109006,109005,208005,208006,209006,209005
162,108006,108007,109007,109006,208006,208007,209007,209006
163,108007,108008,109008,109007,208007,208008,209008,209007
164,108008,108009,109009,109008,208008,208009,209009,209008
165,108009,108010,109010,109009,208009,208010,209010,209009
166,108010,108011,109011,109010,208010,208011,209011,209010
167,109001,109002,110002,110001,209001,209002,210002,210001
168,109002,109003,110003,110002,209002,209003,210003,210002
169,109003,109004,110004,110003,209003,209004,210004,210003
170,109004,109005,110005,110004,209004,209005,210005,210004
171,109005,109006,110006,110005,209005,209006,210006,210005
172,109006,109007,110007,110006,209006,209007,210007,210006
173,109007,109008,110008,110007,209007,209008,210008,210007
174,109008,109009,110009,110008,209008,209009,210009,210008
175,109009,109010,110010,110009,209009,209010,210010,210009
176,109010,109011,110011,110010,209010,209011,210011,210010
177,300001,300002,301002,301001,400001,400002,401002,401001
178,300002,300003,301003,301002,400002,400003,401003,401002
179,300003,300004,301004,301003,400003,400004,401004,401003
180,300004,300005,301005,301004,400004,400005,401005,401004
181,300005,300006,301006,301005,400005,400006,401006,401005
182,300006,300007,301007,301006,400006,400007,401007,401006
183,300007,300008,301008,301007,400007,400008,401008,401007
184,300008,300009,301009,301008,400008,400009,401009,401008
185,300009,300010,301010,301009,400009,400010,401010,401009
186,300010,300011,301011,301010,400010,400011,401011,401010
187,301001,301002,302002,302001,401001,401002,402002,402001
188,301002,301003,302003,302002,401002,401003,402003,402002
189,301003,301004,302004,302003,401003,401004,402004,402003
190,301004,301005,302005,302004,401004,401005,402005,402004
191,301007,301008,302008,302007,401007,401008,402008,402007
192,301008,301009,302009,302008,401008,401009,402009,402008
193,301009,301010,302010,302009,401009,401010,402010,402009
194,301010,301011,302011,302010,401010,401011,402011,402010
195,302001,302002,303002,303001,402001,402002,403002,403001
196,302002,302003,303003,303002,402002,402003,403003,403002
197,302009,302010,303010,303009,402009,402010,403010,403009
198,302010,302011,303011,303010,402010,402011,403011,403010
199,303001,303002,304002,304001,403001,403002,404002,404001
200,303002,303003,304003,304002,403002,403003,404003,404002
201,303009,303010,304010,304009,403009,403010,404010,404009
202,303010,303011,304011,304010,403010,403011,404011,404010
203,304001,304002,305002,305001,404001,404002,405002,405001
204,304010,304011,305011,305010,404010,404011,405011,405010
205,305001,305002,306002,306001,405001,405002,406002,406001
206,305010,305011,306011,306010,405010,405011,406011,406010
207,306001,306002,307002,307001,406001,406002,407002,407001
208,306002,306003,307003,307002,406002,406003,407003,407002
209,306009,306010,307010,307009,406009,406010,407010,407009
210,306010,306011,307011,307010,406010,406011,407011,407010
211,307001,307002,308002,308001,407001,407002,408002,408001
212,307002,307003,308003,308002,407002,407003,408003,408002
213,307009,307010,308010,308009,407009,407010,408010,408009
214,307010,307011,308011,308010,407010,407011,408011,408010
215,308001,308002,309002,309001,408001,408002,409002,409001
216,308002,308003,309003,309002,408002,408003,409003,409002
217,308003,308004,309004,309003,408003,408004,409004,409003
218,308004,308005,309005,309004,408004,408005,409005,409004
219,308007,308008,309008,309007,408007,408008,409008,409007
220,308008,308009,309009,309008,408008,408009,409009,409008
221,308009,308010,309010,309009,408009,408010,409010,409009
222,308010,308011,309011,309010,408010,408011,409011,409010
223,309001,309002,310002,310001,409001,409002,410002,410001
224,309002,309003,310003,310002,409002,409003,410003,410002
225,309003,309004,310004,310003,409003,409004,410004,410003
226,309004,309005,310005,310004,409004,409005,410005,410004
227,309005,309006,310006,310005,409005,409006,410006,410005
228,309006,309007,310007,310006,409006,409007,410007,410006
229,309007,309008,310008,310007,409007,409008,410008,410007
230,309008,309009,310009,310008,409008,409009,410009,410008
231,309009,309010,310010,310009,409009,409010,410010,410009
232,309010,309011,310011,310010,409010,409011,410011,410010
233,400001,400002,401002,401001,500001,500002,501002,501001
234,400002,400003,401003,401002,500002,500003,501003,501002
235,400003,400004,401004,401003,500003,500004,501004,501003
236,400004,400005,401005,401004,500004,500005,501005,501004
237,400005,400006,401006,401005,500005,500006,501006,501005
238,400006,400007,401007,401006,500006,500007,501007,501006
239,400007,400008,401008,401007,500007,500008,501008,501007
240,400008,400009,401009,401008,500008,500009,501009,501008
241,400009,400010,401010,401009,500009,500010,501010,501009
242,400010,400011,401011,401010,500010,500011,501011,501010
243,401001,401002,402002,402001,501001,501002,502002,502001
244,401002,401003,402003,402002,501002,501003,502003,502002
245,401003,401004,402004,402003,501003,501004,502004,502003
246,401004,401005,402005,402004,501004,501005,502005,502004
247,401007,401008,402008,402007,501007,501008,502008,502007
248,401008,401009,402009,402008,501008,501009,502009,502008
249,401009,401010,402010,402009,501009,501010,502010,502009
250,401010,401011,402011,402010,501010,501011,502011,502010
251,402001,402002,403002,403001,502001,502002,503002,503001
252,402002,402003,403003,403002,502002,502003,503003,503002
253,402009,402010,403010,403009,502009,502010,503010,503009
254,402010,402011,403011,403010,502010,502011,503011,503010
255,403001,403002,404002,404001,503001,503002,504002,504001
256,403002,403003,404003,404002,503002,503003,504003,504002
257,403009,403010,404010,404009,503009,503010,504010,504009
258,403010,403011,404011,404010,503010,503011,504011,504010
259,404001,404002,405002,405001,504001,504002,505002,505001
260,404010,404011,405011,405010,504010,504011,505011,505010
261,405001,405002,406002,406001,505001,505002,506002,506001
262,405010,405011,406011,406010,505010,505011,506011,506010
263,406001,406002,407002,407001,506001,506002,507002,507001
264,406002,406003,407003,407002,506002,506003,507003,507002
265,406009,406010,407010,407009,506009,506010,507010,507009
266,406010,406011,407011,407010,506010,506011,507011,507010
267,407001,407002,408002,408001,507001,507002,508002,508001
268,407002,407003,408003,408002,507002,507003,508003,508002
269,407009,407010,408010,408009,507009,507010,508010,508009
270,407010,407011,408011,408010,507010,507011,508011,508010
271,408001,408002,409002,409001,508001,508002,509002,509001
272,408002,408003,409003,409002,508002,508003,509003,509002
273,408003,408004,409004,409003,508003,508004,509004,509003
274,408004,408005,409005,409004,508004,508005,509005,509004
275,408007,408008,409008,409007,508007,508008,509008,509007
276,408008,408009,409009,409008,508008,508009,509009,509008
277,408009,408010,409010,409009,508009,508010,509010,509009
278,408010,408011,409011,409010,508010,508011,509011,509010
279,409001,409002,410002,410001,509001,509002,510002,510001
280,409002,409003,410003,410002,509002,509003,510003,510002
281,409003,409004,410004,410003,509003,509004,510004,510003
282,409004,409005,410005,410004,509004,509005,510005,510004
283,409005,409006,410006,410005,509005,509006,510006,510005
284,409006,409007,410007,410006,509006,509007,510007,510006
285,409007,409008,410008,410007,509007,509008,510008,510007
286,409008,409009,410009,410008,509008,509009,510009,510008
287,409009,409010,410010,410009,509009,509010,510010,510009
288,409010,409011,410011,410010,509010,509011,510011,510010
289,500001,500002,501002,501001,600001,600002,601002,601001
290,500002,500003,501003,501002,600002,600003,601003,601002
291,500003,500004,501004,501003,600003,600004,601004,601003
292,500004,500005,501005,501004,600004,600005,601005,601004
293,500005,500006,501006,501005,600005,600006,601006,601005
294,500006,500007,501007,501006,600006,600007,601007,601006
295,500007,500008,501008,501007,600007,600008,601008,601007
296,500008,500009,501009,501008,600008,600009,601009,601008
297,500009,500010,501010,501009,600009,600010,601010,601009
298,500010,500011,501011,501010,600010,600011,601011,601010
299,501001,501002,502002,502001,601001,601002,602002,602001
300,501002,501003,502003,502002,601002,601003,602003,602002
301,501003,501004,502004,502003,601003,601004,602004,602003
302,501004,501005,502005,502004,601004,601005,602005,602004
303,501005,501006,502006,502005,601005,601006,602006,602005
304,501006,501007,502007,502006,601006,601007,602007,602006
305,501007,501008,502008,502007,601007,601008,602008,602007
306,501008,501009,502009,502008,601008,601009,602009,602008
307,501009,501010,502010,502009,601009,601010,602010,602009
308,501010,501011,502011,502010,601010,601011,602011,602010
309,502001,502002,503002,503001,602001,602002,603002,603001
310,502002,502003,503003,503002,602002,602003,603003,603002
311,502003,502004,503004,503003,602003,602004,603004,603003
312,502004,502005,503005,503004,602004,602005,603005,603004
313,502005,502006,503006,503005,602005,602006,603006,603005
314,502006,502007,503007,503006,602006,602007,603007,603006
315,502007,502008,503008,503007,602007,602008,603008,603007
316,502008,502009,503009,503008,602008,602009,603009,603008
317,502009,502010,503010,503009,602009,602010,603010,603009
318,502010,502011,503011,503010,602010,602011,603011,603010
319,503001,503002,504002,504001,603001,603002,604002,604001
320,503002,503003,504003,504002,603002,603003,604003,604002
321,503003,503004,504004,504003,603003,603004,604004,604003
322,503004,503005,504005,504004,603004,603005,604005,604004
323,503005,503006,504006,504005,603005,603006,604006,604005
324,503006,503007,504007,504006,603006,603007,604007,604006
325,503007,503008,504008,504007,603007,603008,604008,604007
326,503008,503009,504009,504008,603008,603009,604009,604008
327,503009,503010,504010,504009,603009,603010,604010,604009
328,503010,503011,504011,504010,603010,603011,604011,604010
329,504001,504002,505002,505001,604001,604002,605002,605001
330,504002,504003,505003,505002,604002,604003,605003,605002
331,504003,504004,505004,505003,604003,604004,605004,605003
332,504004,504005,505005,505004,604004,604005,605005,605004
333,504005,504006,505006,505005,604005,604006,605006,605005
334,504006,504007,505007,505006,604006,604007,605007,605006
335,504007,504008,505008,505007,604007,604008,605008,605007
336,504008,504009,505009,505008,604008,604009,605009,605008
337,504009,504010,505010,505009,604009,604010,605010,605009
338,504010,504011,505011,505010,604010,604011,605011,605010
339,505001,505002,506002,506001,605001,605002,606002,606001
340,505002,505003,506003,506002,605002,605003,606003,606002
341,505003,505004,506004,506003,605003,605004,606004,606003
342,505004,505005,506005,506004,605004,605005,606005,606004
343,505005,505006,506006,506005,605005,605006,606006,606005
344,505006,505007,506007,506006,605006,605007,606007,606006
345,505007,505008,506008,506007,605007,605008,606008,606007
346,505008,505009,506009,506008,605008,605009,606009,606008
347,505009,505010,506010,506009,605009,605010,606010,606009
348,505010,505011,506011,506010,605010,605011,606011,606010
349,506001,506002,507002,507001,606001,606002,607002,607001
350,506002,506003,507003,507002,606002,606003,607003,607002
351,506003,506004,507004,507003,606003,606004,607004,607003
352,506004,506005,507005,507004,606004,606005,607005,607004
353,506005,506006,507006,507005,606005,606006,607006,607005
354,506006,506007,507007,507006,606006,606007,607007,607006
355,506007,506008,507008,507007,606007,606008,607008,607007
356,506008,506009,507009,507008,606008,606009,607009,607008
357,506009,506010,507010,507009,606009,606010,607010,607009
358,506010,506011,507011,507010,606010,606011,607011,607010
359,507001,507002,508002,508001,607001,607002,608002,608001
360,507002,507003,508003,508002,607002,607003,608003,608002
361,507003,507004,508004,508003,607003,607004,608004,608003
362,507004,507005,508005,508004,607004,607005,608005,608004
363,507005,507006,508006,508005,607005,607006,608006,608005
364,507006,507007,508007,508006,607006,607007,608007,608006
365,507007,507008,508008,508007,607007,607008,608008,608007
366,507008,507009,508009,508008,607008,607009,608009,608008
367,507009,507010,508010,508009,607009,607010,608010,608009
368,507010,507011,508011,508010,607010,607011,608011,608010
369,508001,508002,509002,509001,608001,608002,609002,609001
370,508002,508003,509003,509002,608002,608003,609003,609002
371,508003,508004,509004,509003,608003,608004,609004,609003
372,508004,508005,509005,509004,608004,608005,609005,609004
373,508005,508006,509006,509005,608005,608006,609006,609005
374,508006,508007,509007,509006,608006,608007,609007,609006
375,508007,508008,509008,509007,608007,608008,609008,609007
376,508008,508009,509009,509008,608008,608009,609009,609008
377,508009,508010,509010,509009,608009,608010,609010,609009
378,508010,508011,509011,509010,608010,608011,609011,609010
379,509001,509002,510002,510001,609001,609002,610002,610001
380,509002,509003,510003,510002,609002,609003,610003,610002
381,509003,509004,510004,510003,609003,609004,610004,610003
382,509004,509005,510005,510004,609004,609005,610005,610004
383,509005,509006,510006,510005,609005,609006,610006,610005
384,509006,509007,510007,510006,609006,609007,610007,610006
385,509007,509008,510008,510007,609007,609008,610008,610007
386,509008,509009,510009,510008,609008,609009,610009,610008
387,509009,509010,510010,510009,609009,609010,610010,610009
388,509010,509011,510011,510010,609010,609011,610011,610010
389,701004,701005,702005,702004,801004,801005,802005,802004
390,701005,701006,702006,702005,801005,801006,802006,802005
391,701006,701007,702007,702006,801006,801007,802007,802006
392,701007,701008,702008,702007,801007,801008,802008,802007
393,702003,702004,703004,703003,802003,802004,803004,803003
394,702004,702005,703005,703004,802004,802005,803005,803004
395,702005,702006,703006,703005,802005,802006,803006,803005
396,702006,702007,703007,703006,802006,802007,803007,803006
397,702007,702008,703008,703007,802007,802008,803008,803007
398,702008,702009,703009,703008,802008,802009,803009,803008
399,703002,703003,704003,704002,803002,803003,804003,804002
400,703003,703004,704004,704003,803003,803004,804004,804003
401,703004,703005,704005,704004,803004,803005,804005,804004
402,703007,703008,704008,704007,803007,803008,804008,804007
403,703008,703009,704009,704008,803008,803009,804009,804008
404,703009,703010,704010,704009,803009,803010,804010,804009
405,704002,704003,705003,705002,804002,804003,805003,805002
406,704003,704004,705004,705003,804003,804004,805004,805003
407,704008,704009,705009,705008,804008,804009,805009,805008
408,704009,704010,705010,705009,804009,804010,805010,805009
409,705002,705003,706003,706002,805002,805003,806003,806002
410,705003,705004,706004,706003,805003,805004,806004,806003
411,705008,705009,706009,706008,805008,805009,806009,806008
412,705009,705010,706010,706009,805009,805010,806010,806009
413,706002,706003,707003,707002,806002,806003,807003,807002
414,706003,706004,707004,707003,806003,806004,807004,807003
415,706004,706005,707005,707004,806004,806005,807005,807004
416,706007,706008,707008,707007,806007,806008,807008,807007
417,706008,706009,707009,707008,806008,806009,807009,807008
418,706009,706010,707010,707009,806009,806010,807010,807009
419,707003,707004,708004,708003,807003,807004,808004,808003
420,707004,707005,708005,708004,807004,807005,808005,808004
421,707005,707006,708006,708005,807005,807006,808006,808005
422,707006,707007,708007,708006,807006,807007,808007,808006
423,707007,707008,708008,708007,807007,807008,808008,808007
424,707008,707009,708009,708008,807008,807009,808009,808008
425,708004,708005,709005,709004,808004,808005,809005,809004
426,708005,708006,709006,709005,808005,808006,809006,809005
427,708006,708007,709007,709006,808006,808007,809007,809006
428,708007,708008,709008,709007,808007,808008,809008,809007
429,801004,801005,802005,802004,901004,901005,902005,902004
430,801005,801006,802006,802005,901005,901006,902006,902005
431,801006,801007,802007,802006,901006,901007,902007,902006
432,801007,801008,802008,802007,901007,901008,902008,902007
433,802003,802004,803004,803003,902003,902004,903004,903003
434,802004,802005,803005,803004,902004,902005,903005,903004
435,802005,802006,803006,803005,902005,902006,903006,903005
436,802006,802007,803007,803006,902006,902007,903007,903006
437,802007,802008,803008,803007,902007,902008,903008,903007
438,802008,802009,803009,803008,902008,902009,903009,903008
439,803002,803003,804003,804002,903002,903003,904003,904002
440,803003,803004,804004,804003,903003,903004,904004,904003
441,803004,803005,804005,804004,903004,903005,904005,904004
442,803007,803008,804008,804007,903007,903008,904008,904007
443,803008,803009,804009,804008,903008,903009,904009,904008
444,803009,803010,804010,804009,903009,903010,904010,904009
445,804002,804003,805003,805002,904002,904003,905003,905002
446,804003,804004,805004,805003,904003,904004,905004,905003
447,804008,804009,805009,805008,904008,904009,905009,905008
448,804009,804010,805010,805009,904009,904010,905010,905009
449,805002,805003,806003,806002,905002,905003,906003,906002
450,805003,805004,806004,806003,905003,905004,906004,906003
451,805008,805009,806009,806008,905008,905009,906009,906008
452,805009,805010,806010,806009,905009,905010,906010,906009
453,806002,806003,807003,807002,906002,906003,907003,907002
454,806003,806004,807004,807003,906003,906004,907004,907003
455,806004,806005,807005,807004,906004,906005,907005,907004
456,806007,806008,807008,807007,906007,906008,907008,907007
457,806008,806009,807009,807008,906008,906009,907009,907008
458,806009,806010,807010,807009,906009,906010,907010,907009
459,807003,807004,808004,808003,907003,907004,908004,908003
460,807004,807005,808005,808004,907004,907005,908005,908004
461,807005,807006,808006,808005,907005,907006,908006,908005
462,807006,807007,808007,808006,907006,907007,908007,908006
463,807007,807008,808008,808007,907007,907008,908008,908007
464,807008,807009,808009,808008,907008,907009,908009,908008
465,808004,808005,809005,809004,908004,908005,909005,909004
466,808005,808006,809006,809005,908005,908006,909006,909005
467,808006,808007,809007,809006,908006,908007,909007,909006
468,808007,808008,809008,809007,908007,908008,909008,909007
*ELSET,ELSET=EBRIDGE
1,2,3,4,5,6,7,8,9,10,11,12,13,14,15,16
17,18,19,20,21,22,23,24,25,26,27,28,29,30,31,32
33,34,35,36,37,38,39,40,41,42,43,44,45,46,47,48
49,50,51,52,53,54,55,56,57,58,59,60,61,62,63,64
65,66,67,68,69,70,71,72,73,74,75,76,77,78,79,80
81,82,83,84,85,86,87,88,89,90,91,92,93,94,95,96
97,98,99,100,101,102,103,104,105,106,107,108,109,110,111,112
113,114,115,116,117,118,119,120,121,122,123,124,125,126,127,128
129,130,131,132,133,134,135,136,137,138,139,140,141,142,143,144
145,146,147,148,149,150,151,152,153,154,155,156,157,158,159,160
161,162,163,164,165,166,167,168,169,170,171,172,173,174,175,176
*ELSET,ELSET=ESTAGEB
177,178,179,180,181,182,183,184,185,186,187,188,189,190,191,192
193,194,195,196,197,198,199,200,201,202,203,204,205,206,207,208
209,210,211,212,213,214,215,216,217,218,219,220,221,222,223,224
225,226,227,228,229,230,231,232,233,234,235,236,237,238,239,240
241,242,243,244,245,246,247,248,249,250,251,252,253,254,255,256
257,258,259,260,261,262,263,264,265,266,267,268,269,270,271,272
273,274,275,276,277,278,279,280,281,282,283,284,285,286,287,288
289,290,291,292,293,294,295,296,297,298,299,300,301,302,303,304
305,306,307,308,309,310,311,312,313,314,315,316,317,318,319,320
321,322,323,324,325,326,327,328,329,330,331,332,333,334,335,336
337,338,339,340,341,342,343,344,345,346,347,348,349,350,351,352
353,354,355,356,357,358,359,360,361,362,363,364,365,366,367,368
369,370,371,372,373,374,375,376,377,378,379,380,381,382,383,384
385,386,387,388
*ELSET,ELSET=ESTAGEA
389,390,391,392,393,394,395,396,397,398,399,400,401,402,403,404
405,406,407,408,409,410,411,412,413,414,415,416,417,418,419,420
421,422,423,424,425,426,427,428,429,430,431,432,433,434,435,436
437,438,439,440,441,442,443,444,445,446,447,448,449,450,451,452
453,454,455,456,457,458,459,460,461,462,463,464,465,466,467,468
*ELSET,ELSET=EPROBES
165,366,462,42
*NSET,NSET=NFIXED
1,2,3,4,5,6,7,8,9,10,11,1001,1002,1003,1004,1005
1006,1007,1008,1009,1010,1011,2001,2002,2003,2004,2005,2006,2007,2008,2009,2010
2011,3001,3002,3003,3004,3005,3006,3007,3008,3009,3010,3011,4001,4002,4003,4004
4005,4007,4008,4009,4010,4011,5001,5002,5003,5004,5008,5009,5010,5011,6001,6002
6003,6004,6005,6007,6008,6009,6010,6011,7001,7002,7003,7004,7005,7006,7007,7008
7009,7010,7011,8001,8002,8003,8004,8005,8006,8007,8008,8009,8010,8011,9001,9002
9003,9004,9005,9006,9007,9008,9009,9010,9011,10001,10002,10003,10004,10005,10006,10007
10008,10009,10010,10011
*NSET,NSET=NRP
900000
*NSET,NSET=NS_M6_1
209010,209011,210010,309010,309011,310010
*NSET,NSET=NS_M6_2
200010,201010,201011,300010,301010,301011
*NSET,NSET=NS_M6_3
209001,209002,210002,309001,309002,310002
*NSET,NSET=NS_M6_4
200002,201001,201002,300002,301001,301002
*NSET,NSET=NS_M5_1
606010,607010,706010,707010
*NSET,NSET=NS_M5_2
609007,609008,709007,709008
*NSET,NSET=NS_M5_3
609004,609005,709004,709005
*NSET,NSET=NS_M5_4
606002,607002,706002,707002
*NSET,NSET=NS_M5_5
603002,604002,703002,704002
*NSET,NSET=NS_M5_6
601004,601005,701004,701005
*NSET,NSET=NS_M5_7
601007,601008,701007,701008
*NSET,NSET=NS_M5_8
603010,604010,703010,704010
*NSET,NSET=NS_ARM_SPIDER
902005,904009,906003,908007
*MATERIAL,NAME=AL6061_T6_CAND
*ELASTIC
68300.0,0.33
*DENSITY
2.700e-09
*SOLID SECTION,ELSET=EBRIDGE,MATERIAL=AL6061_T6_CAND
*SOLID SECTION,ELSET=ESTAGEB,MATERIAL=AL6061_T6_CAND
*SOLID SECTION,ELSET=ESTAGEA,MATERIAL=AL6061_T6_CAND
*BOUNDARY
NFIXED,ENCASTRE
** joint couplings (bolt-disk rigid zones)
*SURFACE,TYPE=NODE,NAME=S_NS_M6_1
NS_M6_1,
*SURFACE,TYPE=NODE,NAME=S_NS_M6_2
NS_M6_2,
*SURFACE,TYPE=NODE,NAME=S_NS_M6_3
NS_M6_3,
*SURFACE,TYPE=NODE,NAME=S_NS_M6_4
NS_M6_4,
*SURFACE,TYPE=NODE,NAME=S_NS_M5_1
NS_M5_1,
*SURFACE,TYPE=NODE,NAME=S_NS_M5_2
NS_M5_2,
*SURFACE,TYPE=NODE,NAME=S_NS_M5_3
NS_M5_3,
*SURFACE,TYPE=NODE,NAME=S_NS_M5_4
NS_M5_4,
*SURFACE,TYPE=NODE,NAME=S_NS_M5_5
NS_M5_5,
*SURFACE,TYPE=NODE,NAME=S_NS_M5_6
NS_M5_6,
*SURFACE,TYPE=NODE,NAME=S_NS_M5_7
NS_M5_7,
*SURFACE,TYPE=NODE,NAME=S_NS_M5_8
NS_M5_8,
*SURFACE,TYPE=NODE,NAME=S_NS_ARM_SPIDER
NS_ARM_SPIDER,
*COUPLING,CONSTRAINT NAME=M6_1,REF NODE=900100,SURFACE=S_NS_M6_1
*KINEMATIC
1,6
*COUPLING,CONSTRAINT NAME=M6_2,REF NODE=900101,SURFACE=S_NS_M6_2
*KINEMATIC
1,6
*COUPLING,CONSTRAINT NAME=M6_3,REF NODE=900102,SURFACE=S_NS_M6_3
*KINEMATIC
1,6
*COUPLING,CONSTRAINT NAME=M6_4,REF NODE=900103,SURFACE=S_NS_M6_4
*KINEMATIC
1,6
*COUPLING,CONSTRAINT NAME=M5_1,REF NODE=900200,SURFACE=S_NS_M5_1
*KINEMATIC
1,6
*COUPLING,CONSTRAINT NAME=M5_2,REF NODE=900201,SURFACE=S_NS_M5_2
*KINEMATIC
1,6
*COUPLING,CONSTRAINT NAME=M5_3,REF NODE=900202,SURFACE=S_NS_M5_3
*KINEMATIC
1,6
*COUPLING,CONSTRAINT NAME=M5_4,REF NODE=900203,SURFACE=S_NS_M5_4
*KINEMATIC
1,6
*COUPLING,CONSTRAINT NAME=M5_5,REF NODE=900204,SURFACE=S_NS_M5_5
*KINEMATIC
1,6
*COUPLING,CONSTRAINT NAME=M5_6,REF NODE=900205,SURFACE=S_NS_M5_6
*KINEMATIC
1,6
*COUPLING,CONSTRAINT NAME=M5_7,REF NODE=900206,SURFACE=S_NS_M5_7
*KINEMATIC
1,6
*COUPLING,CONSTRAINT NAME=M5_8,REF NODE=900207,SURFACE=S_NS_M5_8
*KINEMATIC
1,6
*COUPLING,CONSTRAINT NAME=ARM_SPIDER,REF NODE=900000,SURFACE=S_NS_ARM_SPIDER
*KINEMATIC
1,6
*STEP,NAME=QS_STEP,NLGEOM=NO
*STATIC
1.0,1.0
*CLOAD
900000,2,7.21244
900000,6,1846.14
*NODE PRINT,NSET=NFIXED
RF
*NODE PRINT,NSET=NRP
U
*EL PRINT,ELSET=EPROBES
S
*ENERGY PRINT
*OUTPUT,FIELD,VARIABLE=PRESELECT
*OUTPUT,HISTORY
*ENERGY OUTPUT
*END STEP
